\ Model Knapsack Robust
\ LP format - for model browsing. Use MPS format to capture full model detail.
\ Signature: 0x1f0820c9c39f8478
Maximize
  0.92 x[0] + 0.57 x[1] + 0.61 x[2] + 0.85 x[3] + 0.15 x[4] + 0.55 x[5]
   + x[6] + 0.71 x[7] + 0.21 x[8] + 0.12 x[9] + 0.74 x[10] + 0.2 x[11]
   + 1.06 x[12] + 1.04 x[13] + 0.12 x[14] + 1.1 x[15] + 0.42 x[16]
   + 0.49 x[17] + 0.63 x[18] + 0.57 x[19] + 0.12 x[20] + 1.1 x[21]
   + 0.28 x[22] + 0.62 x[23] + 0.41 x[24] + 0.86 x[25] + 0.61 x[26]
   + 0.53 x[27] + 0.37 x[28] + 0.86 x[29] + 0.29 x[30] + 0.63 x[31]
   + 0.74 x[32] + 0.73 x[33] + 0.33 x[34] + 0.17 x[35] + 0.14 x[36]
   + 0.85 x[37] + 0.47 x[38] + 0.6 x[39] + 0.34 x[40] + x[41] + 1.04 x[42]
   + 0.26 x[43] + 0.53 x[44] + 0.47 x[45] + 0.39 x[46] + 0.83 x[47]
   + 0.21 x[48] + 0.64 x[49] + 0.89 x[50] + 0.77 x[51] + 0.87 x[52]
   + 0.27 x[53] + 0.92 x[54] + 0.98 x[55] + 0.78 x[56] + 0.61 x[57]
   + 0.52 x[58] + 0.95 x[59] + 0.34 x[60] + 1.04 x[61] + 0.48 x[62]
   + 0.11 x[63] + 1.04 x[64] + 0.55 x[65] + 0.62 x[66] + 0.3 x[67]
   + 0.77 x[68] + 0.9 x[69] + 0.58 x[70] + 0.92 x[71] + 0.57 x[72]
   + 0.92 x[73] + 0.73 x[74] + 0.98 x[75] + 0.53 x[76] + 0.33 x[77]
   + 0.23 x[78] + 0.5 x[79] + 0.84 x[80] + 0.31 x[81] + 0.34 x[82]
   + 0.48 x[83] + 0.59 x[84] + 0.56 x[85] + 0.5 x[86] + 0.22 x[87]
   + 0.92 x[88] + 0.81 x[89] + 0.11 x[90] + 0.9 x[91] + 0.9 x[92]
   + 0.15 x[93] + 0.5 x[94] + 0.23 x[95] + 0.6 x[96] + 0.15 x[97]
   + 0.73 x[98] + 0.36 x[99] - 0.001 y[0] - 0.001 y[1] - 0.001 y[2]
   - 0.001 y[3] - 0.001 y[4] - 0.001 y[5] - 0.001 y[6] - 0.001 y[7]
   - 0.001 y[8] - 0.001 y[9] - 0.001 y[10] - 0.001 y[11] - 0.001 y[12]
   - 0.001 y[13] - 0.001 y[14] - 0.001 y[15] - 0.001 y[16] - 0.001 y[17]
   - 0.001 y[18] - 0.001 y[19] - 0.001 y[20] - 0.001 y[21] - 0.001 y[22]
   - 0.001 y[23] - 0.001 y[24] - 0.001 y[25] - 0.001 y[26] - 0.001 y[27]
   - 0.001 y[28] - 0.001 y[29] - 0.001 y[30] - 0.001 y[31] - 0.001 y[32]
   - 0.001 y[33] - 0.001 y[34] - 0.001 y[35] - 0.001 y[36] - 0.001 y[37]
   - 0.001 y[38] - 0.001 y[39] - 0.001 y[40] - 0.001 y[41] - 0.001 y[42]
   - 0.001 y[43] - 0.001 y[44] - 0.001 y[45] - 0.001 y[46] - 0.001 y[47]
   - 0.001 y[48] - 0.001 y[49] - 0.001 y[50] - 0.001 y[51] - 0.001 y[52]
   - 0.001 y[53] - 0.001 y[54] - 0.001 y[55] - 0.001 y[56] - 0.001 y[57]
   - 0.001 y[58] - 0.001 y[59] - 0.001 y[60] - 0.001 y[61] - 0.001 y[62]
   - 0.001 y[63] - 0.001 y[64] - 0.001 y[65] - 0.001 y[66] - 0.001 y[67]
   - 0.001 y[68] - 0.001 y[69] - 0.001 y[70] - 0.001 y[71] - 0.001 y[72]
   - 0.001 y[73] - 0.001 y[74] - 0.001 y[75] - 0.001 y[76] - 0.001 y[77]
   - 0.001 y[78] - 0.001 y[79] - 0.001 y[80] - 0.001 y[81] - 0.001 y[82]
   - 0.001 y[83] - 0.001 y[84] - 0.001 y[85] - 0.001 y[86] - 0.001 y[87]
   - 0.001 y[88] - 0.001 y[89] - 0.001 y[90] - 0.001 y[91] - 0.001 y[92]
   - 0.001 y[93] - 0.001 y[94] - 0.001 y[95] - 0.001 y[96] - 0.001 y[97]
   - 0.001 y[98] - 0.001 y[99]
Subject To
 primal_upper_level: 82 x[0] + 47 x[1] + 51 x[2] + 75 x[3] + 5 x[4]
   + 45 x[5] + 90 x[6] + 61 x[7] + 11 x[8] + 2 x[9] + 64 x[10] + 10 x[11]
   + 96 x[12] + 94 x[13] + 2 x[14] + 100 x[15] + 32 x[16] + 39 x[17]
   + 53 x[18] + 47 x[19] + 2 x[20] + 100 x[21] + 18 x[22] + 52 x[23]
   + 31 x[24] + 76 x[25] + 51 x[26] + 43 x[27] + 27 x[28] + 76 x[29]
   + 19 x[30] + 53 x[31] + 64 x[32] + 63 x[33] + 23 x[34] + 7 x[35]
   + 4 x[36] + 75 x[37] + 37 x[38] + 50 x[39] + 24 x[40] + 90 x[41]
   + 94 x[42] + 16 x[43] + 43 x[44] + 37 x[45] + 29 x[46] + 73 x[47]
   + 11 x[48] + 54 x[49] + 79 x[50] + 67 x[51] + 77 x[52] + 17 x[53]
   + 82 x[54] + 88 x[55] + 68 x[56] + 51 x[57] + 42 x[58] + 85 x[59]
   + 24 x[60] + 94 x[61] + 38 x[62] + x[63] + 94 x[64] + 45 x[65]
   + 52 x[66] + 20 x[67] + 67 x[68] + 80 x[69] + 48 x[70] + 82 x[71]
   + 47 x[72] + 82 x[73] + 63 x[74] + 88 x[75] + 43 x[76] + 23 x[77]
   + 13 x[78] + 40 x[79] + 74 x[80] + 21 x[81] + 24 x[82] + 38 x[83]
   + 49 x[84] + 46 x[85] + 40 x[86] + 12 x[87] + 82 x[88] + 71 x[89]
   + x[90] + 80 x[91] + 80 x[92] + 5 x[93] + 40 x[94] + 13 x[95] + 50 x[96]
   + 5 x[97] + 63 x[98] + 26 x[99] + lambda[0] + lambda[1] + lambda[2]
   + lambda[3] + lambda[4] + lambda[5] + lambda[6] + lambda[7] + lambda[8]
   + lambda[9] + lambda[10] + lambda[11] + lambda[12] + lambda[13]
   + lambda[14] + lambda[15] + lambda[16] + lambda[17] + lambda[18]
   + lambda[19] + lambda[20] + lambda[21] + lambda[22] + lambda[23]
   + lambda[24] + lambda[25] + lambda[26] + lambda[27] + lambda[28]
   + lambda[29] + lambda[30] + lambda[31] + lambda[32] + lambda[33]
   + lambda[34] + lambda[35] + lambda[36] + lambda[37] + lambda[38]
   + lambda[39] + lambda[40] + lambda[41] + lambda[42] + lambda[43]
   + lambda[44] + lambda[45] + lambda[46] + lambda[47] + lambda[48]
   + lambda[49] + lambda[50] + lambda[51] + lambda[52] + lambda[53]
   + lambda[54] + lambda[55] + lambda[56] + lambda[57] + lambda[58]
   + lambda[59] + lambda[60] + lambda[61] + lambda[62] + lambda[63]
   + lambda[64] + lambda[65] + lambda[66] + lambda[67] + lambda[68]
   + lambda[69] + lambda[70] + lambda[71] + lambda[72] + lambda[73]
   + lambda[74] + lambda[75] + lambda[76] + lambda[77] + lambda[78]
   + lambda[79] + lambda[80] + lambda[81] + lambda[82] + lambda[83]
   + lambda[84] + lambda[85] + lambda[86] + lambda[87] + lambda[88]
   + lambda[89] + lambda[90] + lambda[91] + lambda[92] + lambda[93]
   + lambda[94] + lambda[95] + lambda[96] + lambda[97] + lambda[98]
   + lambda[99] + 10 pi - 0.2 s[0] - 0.2 s[1] - 0.2 s[2] - 0.2 s[3]
   - 0.2 s[4] - 0.2 s[5] - 0.2 s[6] - 0.2 s[7] - 0.2 s[8] - 0.2 s[9]
   - 0.2 s[10] - 0.2 s[11] - 0.2 s[12] - 0.2 s[13] - 0.2 s[14] - 0.2 s[15]
   - 0.2 s[16] - 0.2 s[17] - 0.2 s[18] - 0.2 s[19] - 0.2 s[20] - 0.2 s[21]
   - 0.2 s[22] - 0.2 s[23] - 0.2 s[24] - 0.2 s[25] - 0.2 s[26] - 0.2 s[27]
   - 0.2 s[28] - 0.2 s[29] - 0.2 s[30] - 0.2 s[31] - 0.2 s[32] - 0.2 s[33]
   - 0.2 s[34] - 0.2 s[35] - 0.2 s[36] - 0.2 s[37] - 0.2 s[38] - 0.2 s[39]
   - 0.2 s[40] - 0.2 s[41] - 0.2 s[42] - 0.2 s[43] - 0.2 s[44] - 0.2 s[45]
   - 0.2 s[46] - 0.2 s[47] - 0.2 s[48] - 0.2 s[49] - 0.2 s[50] - 0.2 s[51]
   - 0.2 s[52] - 0.2 s[53] - 0.2 s[54] - 0.2 s[55] - 0.2 s[56] - 0.2 s[57]
   - 0.2 s[58] - 0.2 s[59] - 0.2 s[60] - 0.2 s[61] - 0.2 s[62] - 0.2 s[63]
   - 0.2 s[64] - 0.2 s[65] - 0.2 s[66] - 0.2 s[67] - 0.2 s[68] - 0.2 s[69]
   - 0.2 s[70] - 0.2 s[71] - 0.2 s[72] - 0.2 s[73] - 0.2 s[74] - 0.2 s[75]
   - 0.2 s[76] - 0.2 s[77] - 0.2 s[78] - 0.2 s[79] - 0.2 s[80] - 0.2 s[81]
   - 0.2 s[82] - 0.2 s[83] - 0.2 s[84] - 0.2 s[85] - 0.2 s[86] - 0.2 s[87]
   - 0.2 s[88] - 0.2 s[89] - 0.2 s[90] - 0.2 s[91] - 0.2 s[92] - 0.2 s[93]
   - 0.2 s[94] - 0.2 s[95] - 0.2 s[96] - 0.2 s[97] - 0.2 s[98] - 0.2 s[99]
   <= 1327
 dual_lower_level[0]: - 8.2 x[0] + lambda[0] + pi >= 0
 dual_lower_level[1]: - 4.7 x[1] + lambda[1] + pi >= 0
 dual_lower_level[2]: - 5.1 x[2] + lambda[2] + pi >= 0
 dual_lower_level[3]: - 7.5 x[3] + lambda[3] + pi >= 0
 dual_lower_level[4]: - 0.5 x[4] + lambda[4] + pi >= 0
 dual_lower_level[5]: - 4.5 x[5] + lambda[5] + pi >= 0
 dual_lower_level[6]: - 9 x[6] + lambda[6] + pi >= 0
 dual_lower_level[7]: - 6.1 x[7] + lambda[7] + pi >= 0
 dual_lower_level[8]: - 1.1 x[8] + lambda[8] + pi >= 0
 dual_lower_level[9]: - 0.2 x[9] + lambda[9] + pi >= 0
 dual_lower_level[10]: - 6.4 x[10] + lambda[10] + pi >= 0
 dual_lower_level[11]: - x[11] + lambda[11] + pi >= 0
 dual_lower_level[12]: - 9.6 x[12] + lambda[12] + pi >= 0
 dual_lower_level[13]: - 9.4 x[13] + lambda[13] + pi >= 0
 dual_lower_level[14]: - 0.2 x[14] + lambda[14] + pi >= 0
 dual_lower_level[15]: - 10 x[15] + lambda[15] + pi >= 0
 dual_lower_level[16]: - 3.2 x[16] + lambda[16] + pi >= 0
 dual_lower_level[17]: - 3.9 x[17] + lambda[17] + pi >= 0
 dual_lower_level[18]: - 5.3 x[18] + lambda[18] + pi >= 0
 dual_lower_level[19]: - 4.7 x[19] + lambda[19] + pi >= 0
 dual_lower_level[20]: - 0.2 x[20] + lambda[20] + pi >= 0
 dual_lower_level[21]: - 10 x[21] + lambda[21] + pi >= 0
 dual_lower_level[22]: - 1.8 x[22] + lambda[22] + pi >= 0
 dual_lower_level[23]: - 5.2 x[23] + lambda[23] + pi >= 0
 dual_lower_level[24]: - 3.1 x[24] + lambda[24] + pi >= 0
 dual_lower_level[25]: - 7.6 x[25] + lambda[25] + pi >= 0
 dual_lower_level[26]: - 5.1 x[26] + lambda[26] + pi >= 0
 dual_lower_level[27]: - 4.3 x[27] + lambda[27] + pi >= 0
 dual_lower_level[28]: - 2.7 x[28] + lambda[28] + pi >= 0
 dual_lower_level[29]: - 7.6 x[29] + lambda[29] + pi >= 0
 dual_lower_level[30]: - 1.9 x[30] + lambda[30] + pi >= 0
 dual_lower_level[31]: - 5.3 x[31] + lambda[31] + pi >= 0
 dual_lower_level[32]: - 6.4 x[32] + lambda[32] + pi >= 0
 dual_lower_level[33]: - 6.3 x[33] + lambda[33] + pi >= 0
 dual_lower_level[34]: - 2.3 x[34] + lambda[34] + pi >= 0
 dual_lower_level[35]: - 0.7 x[35] + lambda[35] + pi >= 0
 dual_lower_level[36]: - 0.4 x[36] + lambda[36] + pi >= 0
 dual_lower_level[37]: - 7.5 x[37] + lambda[37] + pi >= 0
 dual_lower_level[38]: - 3.7 x[38] + lambda[38] + pi >= 0
 dual_lower_level[39]: - 5 x[39] + lambda[39] + pi >= 0
 dual_lower_level[40]: - 2.4 x[40] + lambda[40] + pi >= 0
 dual_lower_level[41]: - 9 x[41] + lambda[41] + pi >= 0
 dual_lower_level[42]: - 9.4 x[42] + lambda[42] + pi >= 0
 dual_lower_level[43]: - 1.6 x[43] + lambda[43] + pi >= 0
 dual_lower_level[44]: - 4.3 x[44] + lambda[44] + pi >= 0
 dual_lower_level[45]: - 3.7 x[45] + lambda[45] + pi >= 0
 dual_lower_level[46]: - 2.9 x[46] + lambda[46] + pi >= 0
 dual_lower_level[47]: - 7.3 x[47] + lambda[47] + pi >= 0
 dual_lower_level[48]: - 1.1 x[48] + lambda[48] + pi >= 0
 dual_lower_level[49]: - 5.4 x[49] + lambda[49] + pi >= 0
 dual_lower_level[50]: - 7.9 x[50] + lambda[50] + pi >= 0
 dual_lower_level[51]: - 6.7 x[51] + lambda[51] + pi >= 0
 dual_lower_level[52]: - 7.7 x[52] + lambda[52] + pi >= 0
 dual_lower_level[53]: - 1.7 x[53] + lambda[53] + pi >= 0
 dual_lower_level[54]: - 8.2 x[54] + lambda[54] + pi >= 0
 dual_lower_level[55]: - 8.8 x[55] + lambda[55] + pi >= 0
 dual_lower_level[56]: - 6.8 x[56] + lambda[56] + pi >= 0
 dual_lower_level[57]: - 5.1 x[57] + lambda[57] + pi >= 0
 dual_lower_level[58]: - 4.2 x[58] + lambda[58] + pi >= 0
 dual_lower_level[59]: - 8.5 x[59] + lambda[59] + pi >= 0
 dual_lower_level[60]: - 2.4 x[60] + lambda[60] + pi >= 0
 dual_lower_level[61]: - 9.4 x[61] + lambda[61] + pi >= 0
 dual_lower_level[62]: - 3.8 x[62] + lambda[62] + pi >= 0
 dual_lower_level[63]: - 0.1 x[63] + lambda[63] + pi >= 0
 dual_lower_level[64]: - 9.4 x[64] + lambda[64] + pi >= 0
 dual_lower_level[65]: - 4.5 x[65] + lambda[65] + pi >= 0
 dual_lower_level[66]: - 5.2 x[66] + lambda[66] + pi >= 0
 dual_lower_level[67]: - 2 x[67] + lambda[67] + pi >= 0
 dual_lower_level[68]: - 6.7 x[68] + lambda[68] + pi >= 0
 dual_lower_level[69]: - 8 x[69] + lambda[69] + pi >= 0
 dual_lower_level[70]: - 4.8 x[70] + lambda[70] + pi >= 0
 dual_lower_level[71]: - 8.2 x[71] + lambda[71] + pi >= 0
 dual_lower_level[72]: - 4.7 x[72] + lambda[72] + pi >= 0
 dual_lower_level[73]: - 8.2 x[73] + lambda[73] + pi >= 0
 dual_lower_level[74]: - 6.3 x[74] + lambda[74] + pi >= 0
 dual_lower_level[75]: - 8.8 x[75] + lambda[75] + pi >= 0
 dual_lower_level[76]: - 4.3 x[76] + lambda[76] + pi >= 0
 dual_lower_level[77]: - 2.3 x[77] + lambda[77] + pi >= 0
 dual_lower_level[78]: - 1.3 x[78] + lambda[78] + pi >= 0
 dual_lower_level[79]: - 4 x[79] + lambda[79] + pi >= 0
 dual_lower_level[80]: - 7.4 x[80] + lambda[80] + pi >= 0
 dual_lower_level[81]: - 2.1 x[81] + lambda[81] + pi >= 0
 dual_lower_level[82]: - 2.4 x[82] + lambda[82] + pi >= 0
 dual_lower_level[83]: - 3.8 x[83] + lambda[83] + pi >= 0
 dual_lower_level[84]: - 4.9 x[84] + lambda[84] + pi >= 0
 dual_lower_level[85]: - 4.6 x[85] + lambda[85] + pi >= 0
 dual_lower_level[86]: - 4 x[86] + lambda[86] + pi >= 0
 dual_lower_level[87]: - 1.2 x[87] + lambda[87] + pi >= 0
 dual_lower_level[88]: - 8.2 x[88] + lambda[88] + pi >= 0
 dual_lower_level[89]: - 7.1 x[89] + lambda[89] + pi >= 0
 dual_lower_level[90]: - 0.1 x[90] + lambda[90] + pi >= 0
 dual_lower_level[91]: - 8 x[91] + lambda[91] + pi >= 0
 dual_lower_level[92]: - 8 x[92] + lambda[92] + pi >= 0
 dual_lower_level[93]: - 0.5 x[93] + lambda[93] + pi >= 0
 dual_lower_level[94]: - 4 x[94] + lambda[94] + pi >= 0
 dual_lower_level[95]: - 1.3 x[95] + lambda[95] + pi >= 0
 dual_lower_level[96]: - 5 x[96] + lambda[96] + pi >= 0
 dual_lower_level[97]: - 0.5 x[97] + lambda[97] + pi >= 0
 dual_lower_level[98]: - 6.3 x[98] + lambda[98] + pi >= 0
 dual_lower_level[99]: - 2.6 x[99] + lambda[99] + pi >= 0
 mccormick_s_y[0]: - 8.2 y[0] + s[0] <= 0
 mccormick_s_y[1]: - 4.7 y[1] + s[1] <= 0
 mccormick_s_y[2]: - 5.1 y[2] + s[2] <= 0
 mccormick_s_y[3]: - 7.5 y[3] + s[3] <= 0
 mccormick_s_y[4]: - 0.5 y[4] + s[4] <= 0
 mccormick_s_y[5]: - 4.5 y[5] + s[5] <= 0
 mccormick_s_y[6]: - 9 y[6] + s[6] <= 0
 mccormick_s_y[7]: - 6.1 y[7] + s[7] <= 0
 mccormick_s_y[8]: - 1.1 y[8] + s[8] <= 0
 mccormick_s_y[9]: - 0.2 y[9] + s[9] <= 0
 mccormick_s_y[10]: - 6.4 y[10] + s[10] <= 0
 mccormick_s_y[11]: - y[11] + s[11] <= 0
 mccormick_s_y[12]: - 9.6 y[12] + s[12] <= 0
 mccormick_s_y[13]: - 9.4 y[13] + s[13] <= 0
 mccormick_s_y[14]: - 0.2 y[14] + s[14] <= 0
 mccormick_s_y[15]: - 10 y[15] + s[15] <= 0
 mccormick_s_y[16]: - 3.2 y[16] + s[16] <= 0
 mccormick_s_y[17]: - 3.9 y[17] + s[17] <= 0
 mccormick_s_y[18]: - 5.3 y[18] + s[18] <= 0
 mccormick_s_y[19]: - 4.7 y[19] + s[19] <= 0
 mccormick_s_y[20]: - 0.2 y[20] + s[20] <= 0
 mccormick_s_y[21]: - 10 y[21] + s[21] <= 0
 mccormick_s_y[22]: - 1.8 y[22] + s[22] <= 0
 mccormick_s_y[23]: - 5.2 y[23] + s[23] <= 0
 mccormick_s_y[24]: - 3.1 y[24] + s[24] <= 0
 mccormick_s_y[25]: - 7.6 y[25] + s[25] <= 0
 mccormick_s_y[26]: - 5.1 y[26] + s[26] <= 0
 mccormick_s_y[27]: - 4.3 y[27] + s[27] <= 0
 mccormick_s_y[28]: - 2.7 y[28] + s[28] <= 0
 mccormick_s_y[29]: - 7.6 y[29] + s[29] <= 0
 mccormick_s_y[30]: - 1.9 y[30] + s[30] <= 0
 mccormick_s_y[31]: - 5.3 y[31] + s[31] <= 0
 mccormick_s_y[32]: - 6.4 y[32] + s[32] <= 0
 mccormick_s_y[33]: - 6.3 y[33] + s[33] <= 0
 mccormick_s_y[34]: - 2.3 y[34] + s[34] <= 0
 mccormick_s_y[35]: - 0.7 y[35] + s[35] <= 0
 mccormick_s_y[36]: - 0.4 y[36] + s[36] <= 0
 mccormick_s_y[37]: - 7.5 y[37] + s[37] <= 0
 mccormick_s_y[38]: - 3.7 y[38] + s[38] <= 0
 mccormick_s_y[39]: - 5 y[39] + s[39] <= 0
 mccormick_s_y[40]: - 2.4 y[40] + s[40] <= 0
 mccormick_s_y[41]: - 9 y[41] + s[41] <= 0
 mccormick_s_y[42]: - 9.4 y[42] + s[42] <= 0
 mccormick_s_y[43]: - 1.6 y[43] + s[43] <= 0
 mccormick_s_y[44]: - 4.3 y[44] + s[44] <= 0
 mccormick_s_y[45]: - 3.7 y[45] + s[45] <= 0
 mccormick_s_y[46]: - 2.9 y[46] + s[46] <= 0
 mccormick_s_y[47]: - 7.3 y[47] + s[47] <= 0
 mccormick_s_y[48]: - 1.1 y[48] + s[48] <= 0
 mccormick_s_y[49]: - 5.4 y[49] + s[49] <= 0
 mccormick_s_y[50]: - 7.9 y[50] + s[50] <= 0
 mccormick_s_y[51]: - 6.7 y[51] + s[51] <= 0
 mccormick_s_y[52]: - 7.7 y[52] + s[52] <= 0
 mccormick_s_y[53]: - 1.7 y[53] + s[53] <= 0
 mccormick_s_y[54]: - 8.2 y[54] + s[54] <= 0
 mccormick_s_y[55]: - 8.8 y[55] + s[55] <= 0
 mccormick_s_y[56]: - 6.8 y[56] + s[56] <= 0
 mccormick_s_y[57]: - 5.1 y[57] + s[57] <= 0
 mccormick_s_y[58]: - 4.2 y[58] + s[58] <= 0
 mccormick_s_y[59]: - 8.5 y[59] + s[59] <= 0
 mccormick_s_y[60]: - 2.4 y[60] + s[60] <= 0
 mccormick_s_y[61]: - 9.4 y[61] + s[61] <= 0
 mccormick_s_y[62]: - 3.8 y[62] + s[62] <= 0
 mccormick_s_y[63]: - 0.1 y[63] + s[63] <= 0
 mccormick_s_y[64]: - 9.4 y[64] + s[64] <= 0
 mccormick_s_y[65]: - 4.5 y[65] + s[65] <= 0
 mccormick_s_y[66]: - 5.2 y[66] + s[66] <= 0
 mccormick_s_y[67]: - 2 y[67] + s[67] <= 0
 mccormick_s_y[68]: - 6.7 y[68] + s[68] <= 0
 mccormick_s_y[69]: - 8 y[69] + s[69] <= 0
 mccormick_s_y[70]: - 4.8 y[70] + s[70] <= 0
 mccormick_s_y[71]: - 8.2 y[71] + s[71] <= 0
 mccormick_s_y[72]: - 4.7 y[72] + s[72] <= 0
 mccormick_s_y[73]: - 8.2 y[73] + s[73] <= 0
 mccormick_s_y[74]: - 6.3 y[74] + s[74] <= 0
 mccormick_s_y[75]: - 8.8 y[75] + s[75] <= 0
 mccormick_s_y[76]: - 4.3 y[76] + s[76] <= 0
 mccormick_s_y[77]: - 2.3 y[77] + s[77] <= 0
 mccormick_s_y[78]: - 1.3 y[78] + s[78] <= 0
 mccormick_s_y[79]: - 4 y[79] + s[79] <= 0
 mccormick_s_y[80]: - 7.4 y[80] + s[80] <= 0
 mccormick_s_y[81]: - 2.1 y[81] + s[81] <= 0
 mccormick_s_y[82]: - 2.4 y[82] + s[82] <= 0
 mccormick_s_y[83]: - 3.8 y[83] + s[83] <= 0
 mccormick_s_y[84]: - 4.9 y[84] + s[84] <= 0
 mccormick_s_y[85]: - 4.6 y[85] + s[85] <= 0
 mccormick_s_y[86]: - 4 y[86] + s[86] <= 0
 mccormick_s_y[87]: - 1.2 y[87] + s[87] <= 0
 mccormick_s_y[88]: - 8.2 y[88] + s[88] <= 0
 mccormick_s_y[89]: - 7.1 y[89] + s[89] <= 0
 mccormick_s_y[90]: - 0.1 y[90] + s[90] <= 0
 mccormick_s_y[91]: - 8 y[91] + s[91] <= 0
 mccormick_s_y[92]: - 8 y[92] + s[92] <= 0
 mccormick_s_y[93]: - 0.5 y[93] + s[93] <= 0
 mccormick_s_y[94]: - 4 y[94] + s[94] <= 0
 mccormick_s_y[95]: - 1.3 y[95] + s[95] <= 0
 mccormick_s_y[96]: - 5 y[96] + s[96] <= 0
 mccormick_s_y[97]: - 0.5 y[97] + s[97] <= 0
 mccormick_s_y[98]: - 6.3 y[98] + s[98] <= 0
 mccormick_s_y[99]: - 2.6 y[99] + s[99] <= 0
 mccormick_s_lam[0]: - lambda[0] + s[0] <= 0
 mccormick_s_lam[1]: - lambda[1] + s[1] <= 0
 mccormick_s_lam[2]: - lambda[2] + s[2] <= 0
 mccormick_s_lam[3]: - lambda[3] + s[3] <= 0
 mccormick_s_lam[4]: - lambda[4] + s[4] <= 0
 mccormick_s_lam[5]: - lambda[5] + s[5] <= 0
 mccormick_s_lam[6]: - lambda[6] + s[6] <= 0
 mccormick_s_lam[7]: - lambda[7] + s[7] <= 0
 mccormick_s_lam[8]: - lambda[8] + s[8] <= 0
 mccormick_s_lam[9]: - lambda[9] + s[9] <= 0
 mccormick_s_lam[10]: - lambda[10] + s[10] <= 0
 mccormick_s_lam[11]: - lambda[11] + s[11] <= 0
 mccormick_s_lam[12]: - lambda[12] + s[12] <= 0
 mccormick_s_lam[13]: - lambda[13] + s[13] <= 0
 mccormick_s_lam[14]: - lambda[14] + s[14] <= 0
 mccormick_s_lam[15]: - lambda[15] + s[15] <= 0
 mccormick_s_lam[16]: - lambda[16] + s[16] <= 0
 mccormick_s_lam[17]: - lambda[17] + s[17] <= 0
 mccormick_s_lam[18]: - lambda[18] + s[18] <= 0
 mccormick_s_lam[19]: - lambda[19] + s[19] <= 0
 mccormick_s_lam[20]: - lambda[20] + s[20] <= 0
 mccormick_s_lam[21]: - lambda[21] + s[21] <= 0
 mccormick_s_lam[22]: - lambda[22] + s[22] <= 0
 mccormick_s_lam[23]: - lambda[23] + s[23] <= 0
 mccormick_s_lam[24]: - lambda[24] + s[24] <= 0
 mccormick_s_lam[25]: - lambda[25] + s[25] <= 0
 mccormick_s_lam[26]: - lambda[26] + s[26] <= 0
 mccormick_s_lam[27]: - lambda[27] + s[27] <= 0
 mccormick_s_lam[28]: - lambda[28] + s[28] <= 0
 mccormick_s_lam[29]: - lambda[29] + s[29] <= 0
 mccormick_s_lam[30]: - lambda[30] + s[30] <= 0
 mccormick_s_lam[31]: - lambda[31] + s[31] <= 0
 mccormick_s_lam[32]: - lambda[32] + s[32] <= 0
 mccormick_s_lam[33]: - lambda[33] + s[33] <= 0
 mccormick_s_lam[34]: - lambda[34] + s[34] <= 0
 mccormick_s_lam[35]: - lambda[35] + s[35] <= 0
 mccormick_s_lam[36]: - lambda[36] + s[36] <= 0
 mccormick_s_lam[37]: - lambda[37] + s[37] <= 0
 mccormick_s_lam[38]: - lambda[38] + s[38] <= 0
 mccormick_s_lam[39]: - lambda[39] + s[39] <= 0
 mccormick_s_lam[40]: - lambda[40] + s[40] <= 0
 mccormick_s_lam[41]: - lambda[41] + s[41] <= 0
 mccormick_s_lam[42]: - lambda[42] + s[42] <= 0
 mccormick_s_lam[43]: - lambda[43] + s[43] <= 0
 mccormick_s_lam[44]: - lambda[44] + s[44] <= 0
 mccormick_s_lam[45]: - lambda[45] + s[45] <= 0
 mccormick_s_lam[46]: - lambda[46] + s[46] <= 0
 mccormick_s_lam[47]: - lambda[47] + s[47] <= 0
 mccormick_s_lam[48]: - lambda[48] + s[48] <= 0
 mccormick_s_lam[49]: - lambda[49] + s[49] <= 0
 mccormick_s_lam[50]: - lambda[50] + s[50] <= 0
 mccormick_s_lam[51]: - lambda[51] + s[51] <= 0
 mccormick_s_lam[52]: - lambda[52] + s[52] <= 0
 mccormick_s_lam[53]: - lambda[53] + s[53] <= 0
 mccormick_s_lam[54]: - lambda[54] + s[54] <= 0
 mccormick_s_lam[55]: - lambda[55] + s[55] <= 0
 mccormick_s_lam[56]: - lambda[56] + s[56] <= 0
 mccormick_s_lam[57]: - lambda[57] + s[57] <= 0
 mccormick_s_lam[58]: - lambda[58] + s[58] <= 0
 mccormick_s_lam[59]: - lambda[59] + s[59] <= 0
 mccormick_s_lam[60]: - lambda[60] + s[60] <= 0
 mccormick_s_lam[61]: - lambda[61] + s[61] <= 0
 mccormick_s_lam[62]: - lambda[62] + s[62] <= 0
 mccormick_s_lam[63]: - lambda[63] + s[63] <= 0
 mccormick_s_lam[64]: - lambda[64] + s[64] <= 0
 mccormick_s_lam[65]: - lambda[65] + s[65] <= 0
 mccormick_s_lam[66]: - lambda[66] + s[66] <= 0
 mccormick_s_lam[67]: - lambda[67] + s[67] <= 0
 mccormick_s_lam[68]: - lambda[68] + s[68] <= 0
 mccormick_s_lam[69]: - lambda[69] + s[69] <= 0
 mccormick_s_lam[70]: - lambda[70] + s[70] <= 0
 mccormick_s_lam[71]: - lambda[71] + s[71] <= 0
 mccormick_s_lam[72]: - lambda[72] + s[72] <= 0
 mccormick_s_lam[73]: - lambda[73] + s[73] <= 0
 mccormick_s_lam[74]: - lambda[74] + s[74] <= 0
 mccormick_s_lam[75]: - lambda[75] + s[75] <= 0
 mccormick_s_lam[76]: - lambda[76] + s[76] <= 0
 mccormick_s_lam[77]: - lambda[77] + s[77] <= 0
 mccormick_s_lam[78]: - lambda[78] + s[78] <= 0
 mccormick_s_lam[79]: - lambda[79] + s[79] <= 0
 mccormick_s_lam[80]: - lambda[80] + s[80] <= 0
 mccormick_s_lam[81]: - lambda[81] + s[81] <= 0
 mccormick_s_lam[82]: - lambda[82] + s[82] <= 0
 mccormick_s_lam[83]: - lambda[83] + s[83] <= 0
 mccormick_s_lam[84]: - lambda[84] + s[84] <= 0
 mccormick_s_lam[85]: - lambda[85] + s[85] <= 0
 mccormick_s_lam[86]: - lambda[86] + s[86] <= 0
 mccormick_s_lam[87]: - lambda[87] + s[87] <= 0
 mccormick_s_lam[88]: - lambda[88] + s[88] <= 0
 mccormick_s_lam[89]: - lambda[89] + s[89] <= 0
 mccormick_s_lam[90]: - lambda[90] + s[90] <= 0
 mccormick_s_lam[91]: - lambda[91] + s[91] <= 0
 mccormick_s_lam[92]: - lambda[92] + s[92] <= 0
 mccormick_s_lam[93]: - lambda[93] + s[93] <= 0
 mccormick_s_lam[94]: - lambda[94] + s[94] <= 0
 mccormick_s_lam[95]: - lambda[95] + s[95] <= 0
 mccormick_s_lam[96]: - lambda[96] + s[96] <= 0
 mccormick_s_lam[97]: - lambda[97] + s[97] <= 0
 mccormick_s_lam[98]: - lambda[98] + s[98] <= 0
 mccormick_s_lam[99]: - lambda[99] + s[99] <= 0
 mccormick_lam_s_x[0]: 8.2 y[0] + lambda[0] - s[0] <= 8.2
 mccormick_lam_s_x[1]: 4.7 y[1] + lambda[1] - s[1] <= 4.7
 mccormick_lam_s_x[2]: 5.1 y[2] + lambda[2] - s[2] <= 5.1
 mccormick_lam_s_x[3]: 7.5 y[3] + lambda[3] - s[3] <= 7.5
 mccormick_lam_s_x[4]: 0.5 y[4] + lambda[4] - s[4] <= 0.5
 mccormick_lam_s_x[5]: 4.5 y[5] + lambda[5] - s[5] <= 4.5
 mccormick_lam_s_x[6]: 9 y[6] + lambda[6] - s[6] <= 9
 mccormick_lam_s_x[7]: 6.1 y[7] + lambda[7] - s[7] <= 6.1
 mccormick_lam_s_x[8]: 1.1 y[8] + lambda[8] - s[8] <= 1.1
 mccormick_lam_s_x[9]: 0.2 y[9] + lambda[9] - s[9] <= 0.2
 mccormick_lam_s_x[10]: 6.4 y[10] + lambda[10] - s[10] <= 6.4
 mccormick_lam_s_x[11]: y[11] + lambda[11] - s[11] <= 1
 mccormick_lam_s_x[12]: 9.6 y[12] + lambda[12] - s[12] <= 9.6
 mccormick_lam_s_x[13]: 9.4 y[13] + lambda[13] - s[13] <= 9.4
 mccormick_lam_s_x[14]: 0.2 y[14] + lambda[14] - s[14] <= 0.2
 mccormick_lam_s_x[15]: 10 y[15] + lambda[15] - s[15] <= 10
 mccormick_lam_s_x[16]: 3.2 y[16] + lambda[16] - s[16] <= 3.2
 mccormick_lam_s_x[17]: 3.9 y[17] + lambda[17] - s[17] <= 3.9
 mccormick_lam_s_x[18]: 5.3 y[18] + lambda[18] - s[18] <= 5.3
 mccormick_lam_s_x[19]: 4.7 y[19] + lambda[19] - s[19] <= 4.7
 mccormick_lam_s_x[20]: 0.2 y[20] + lambda[20] - s[20] <= 0.2
 mccormick_lam_s_x[21]: 10 y[21] + lambda[21] - s[21] <= 10
 mccormick_lam_s_x[22]: 1.8 y[22] + lambda[22] - s[22] <= 1.8
 mccormick_lam_s_x[23]: 5.2 y[23] + lambda[23] - s[23] <= 5.2
 mccormick_lam_s_x[24]: 3.1 y[24] + lambda[24] - s[24] <= 3.1
 mccormick_lam_s_x[25]: 7.6 y[25] + lambda[25] - s[25] <= 7.6
 mccormick_lam_s_x[26]: 5.1 y[26] + lambda[26] - s[26] <= 5.1
 mccormick_lam_s_x[27]: 4.3 y[27] + lambda[27] - s[27] <= 4.3
 mccormick_lam_s_x[28]: 2.7 y[28] + lambda[28] - s[28] <= 2.7
 mccormick_lam_s_x[29]: 7.6 y[29] + lambda[29] - s[29] <= 7.6
 mccormick_lam_s_x[30]: 1.9 y[30] + lambda[30] - s[30] <= 1.9
 mccormick_lam_s_x[31]: 5.3 y[31] + lambda[31] - s[31] <= 5.3
 mccormick_lam_s_x[32]: 6.4 y[32] + lambda[32] - s[32] <= 6.4
 mccormick_lam_s_x[33]: 6.3 y[33] + lambda[33] - s[33] <= 6.3
 mccormick_lam_s_x[34]: 2.3 y[34] + lambda[34] - s[34] <= 2.3
 mccormick_lam_s_x[35]: 0.7 y[35] + lambda[35] - s[35] <= 0.7
 mccormick_lam_s_x[36]: 0.4 y[36] + lambda[36] - s[36] <= 0.4
 mccormick_lam_s_x[37]: 7.5 y[37] + lambda[37] - s[37] <= 7.5
 mccormick_lam_s_x[38]: 3.7 y[38] + lambda[38] - s[38] <= 3.7
 mccormick_lam_s_x[39]: 5 y[39] + lambda[39] - s[39] <= 5
 mccormick_lam_s_x[40]: 2.4 y[40] + lambda[40] - s[40] <= 2.4
 mccormick_lam_s_x[41]: 9 y[41] + lambda[41] - s[41] <= 9
 mccormick_lam_s_x[42]: 9.4 y[42] + lambda[42] - s[42] <= 9.4
 mccormick_lam_s_x[43]: 1.6 y[43] + lambda[43] - s[43] <= 1.6
 mccormick_lam_s_x[44]: 4.3 y[44] + lambda[44] - s[44] <= 4.3
 mccormick_lam_s_x[45]: 3.7 y[45] + lambda[45] - s[45] <= 3.7
 mccormick_lam_s_x[46]: 2.9 y[46] + lambda[46] - s[46] <= 2.9
 mccormick_lam_s_x[47]: 7.3 y[47] + lambda[47] - s[47] <= 7.3
 mccormick_lam_s_x[48]: 1.1 y[48] + lambda[48] - s[48] <= 1.1
 mccormick_lam_s_x[49]: 5.4 y[49] + lambda[49] - s[49] <= 5.4
 mccormick_lam_s_x[50]: 7.9 y[50] + lambda[50] - s[50] <= 7.9
 mccormick_lam_s_x[51]: 6.7 y[51] + lambda[51] - s[51] <= 6.7
 mccormick_lam_s_x[52]: 7.7 y[52] + lambda[52] - s[52] <= 7.7
 mccormick_lam_s_x[53]: 1.7 y[53] + lambda[53] - s[53] <= 1.7
 mccormick_lam_s_x[54]: 8.2 y[54] + lambda[54] - s[54] <= 8.2
 mccormick_lam_s_x[55]: 8.8 y[55] + lambda[55] - s[55] <= 8.8
 mccormick_lam_s_x[56]: 6.8 y[56] + lambda[56] - s[56] <= 6.8
 mccormick_lam_s_x[57]: 5.1 y[57] + lambda[57] - s[57] <= 5.1
 mccormick_lam_s_x[58]: 4.2 y[58] + lambda[58] - s[58] <= 4.2
 mccormick_lam_s_x[59]: 8.5 y[59] + lambda[59] - s[59] <= 8.5
 mccormick_lam_s_x[60]: 2.4 y[60] + lambda[60] - s[60] <= 2.4
 mccormick_lam_s_x[61]: 9.4 y[61] + lambda[61] - s[61] <= 9.4
 mccormick_lam_s_x[62]: 3.8 y[62] + lambda[62] - s[62] <= 3.8
 mccormick_lam_s_x[63]: 0.1 y[63] + lambda[63] - s[63] <= 0.1
 mccormick_lam_s_x[64]: 9.4 y[64] + lambda[64] - s[64] <= 9.4
 mccormick_lam_s_x[65]: 4.5 y[65] + lambda[65] - s[65] <= 4.5
 mccormick_lam_s_x[66]: 5.2 y[66] + lambda[66] - s[66] <= 5.2
 mccormick_lam_s_x[67]: 2 y[67] + lambda[67] - s[67] <= 2
 mccormick_lam_s_x[68]: 6.7 y[68] + lambda[68] - s[68] <= 6.7
 mccormick_lam_s_x[69]: 8 y[69] + lambda[69] - s[69] <= 8
 mccormick_lam_s_x[70]: 4.8 y[70] + lambda[70] - s[70] <= 4.8
 mccormick_lam_s_x[71]: 8.2 y[71] + lambda[71] - s[71] <= 8.2
 mccormick_lam_s_x[72]: 4.7 y[72] + lambda[72] - s[72] <= 4.7
 mccormick_lam_s_x[73]: 8.2 y[73] + lambda[73] - s[73] <= 8.2
 mccormick_lam_s_x[74]: 6.3 y[74] + lambda[74] - s[74] <= 6.3
 mccormick_lam_s_x[75]: 8.8 y[75] + lambda[75] - s[75] <= 8.8
 mccormick_lam_s_x[76]: 4.3 y[76] + lambda[76] - s[76] <= 4.3
 mccormick_lam_s_x[77]: 2.3 y[77] + lambda[77] - s[77] <= 2.3
 mccormick_lam_s_x[78]: 1.3 y[78] + lambda[78] - s[78] <= 1.3
 mccormick_lam_s_x[79]: 4 y[79] + lambda[79] - s[79] <= 4
 mccormick_lam_s_x[80]: 7.4 y[80] + lambda[80] - s[80] <= 7.4
 mccormick_lam_s_x[81]: 2.1 y[81] + lambda[81] - s[81] <= 2.1
 mccormick_lam_s_x[82]: 2.4 y[82] + lambda[82] - s[82] <= 2.4
 mccormick_lam_s_x[83]: 3.8 y[83] + lambda[83] - s[83] <= 3.8
 mccormick_lam_s_x[84]: 4.9 y[84] + lambda[84] - s[84] <= 4.9
 mccormick_lam_s_x[85]: 4.6 y[85] + lambda[85] - s[85] <= 4.6
 mccormick_lam_s_x[86]: 4 y[86] + lambda[86] - s[86] <= 4
 mccormick_lam_s_x[87]: 1.2 y[87] + lambda[87] - s[87] <= 1.2
 mccormick_lam_s_x[88]: 8.2 y[88] + lambda[88] - s[88] <= 8.2
 mccormick_lam_s_x[89]: 7.1 y[89] + lambda[89] - s[89] <= 7.1
 mccormick_lam_s_x[90]: 0.1 y[90] + lambda[90] - s[90] <= 0.1
 mccormick_lam_s_x[91]: 8 y[91] + lambda[91] - s[91] <= 8
 mccormick_lam_s_x[92]: 8 y[92] + lambda[92] - s[92] <= 8
 mccormick_lam_s_x[93]: 0.5 y[93] + lambda[93] - s[93] <= 0.5
 mccormick_lam_s_x[94]: 4 y[94] + lambda[94] - s[94] <= 4
 mccormick_lam_s_x[95]: 1.3 y[95] + lambda[95] - s[95] <= 1.3
 mccormick_lam_s_x[96]: 5 y[96] + lambda[96] - s[96] <= 5
 mccormick_lam_s_x[97]: 0.5 y[97] + lambda[97] - s[97] <= 0.5
 mccormick_lam_s_x[98]: 6.3 y[98] + lambda[98] - s[98] <= 6.3
 mccormick_lam_s_x[99]: 2.6 y[99] + lambda[99] - s[99] <= 2.6
Bounds
Binaries
 x[0] x[1] x[2] x[3] x[4] x[5] x[6] x[7] x[8] x[9] x[10] x[11] x[12] x[13]
 x[14] x[15] x[16] x[17] x[18] x[19] x[20] x[21] x[22] x[23] x[24] x[25]
 x[26] x[27] x[28] x[29] x[30] x[31] x[32] x[33] x[34] x[35] x[36] x[37]
 x[38] x[39] x[40] x[41] x[42] x[43] x[44] x[45] x[46] x[47] x[48] x[49]
 x[50] x[51] x[52] x[53] x[54] x[55] x[56] x[57] x[58] x[59] x[60] x[61]
 x[62] x[63] x[64] x[65] x[66] x[67] x[68] x[69] x[70] x[71] x[72] x[73]
 x[74] x[75] x[76] x[77] x[78] x[79] x[80] x[81] x[82] x[83] x[84] x[85]
 x[86] x[87] x[88] x[89] x[90] x[91] x[92] x[93] x[94] x[95] x[96] x[97]
 x[98] x[99] y[0] y[1] y[2] y[3] y[4] y[5] y[6] y[7] y[8] y[9] y[10] y[11]
 y[12] y[13] y[14] y[15] y[16] y[17] y[18] y[19] y[20] y[21] y[22] y[23]
 y[24] y[25] y[26] y[27] y[28] y[29] y[30] y[31] y[32] y[33] y[34] y[35]
 y[36] y[37] y[38] y[39] y[40] y[41] y[42] y[43] y[44] y[45] y[46] y[47]
 y[48] y[49] y[50] y[51] y[52] y[53] y[54] y[55] y[56] y[57] y[58] y[59]
 y[60] y[61] y[62] y[63] y[64] y[65] y[66] y[67] y[68] y[69] y[70] y[71]
 y[72] y[73] y[74] y[75] y[76] y[77] y[78] y[79] y[80] y[81] y[82] y[83]
 y[84] y[85] y[86] y[87] y[88] y[89] y[90] y[91] y[92] y[93] y[94] y[95]
 y[96] y[97] y[98] y[99]
End
