\ Model knapsack_40_9
\ LP format - for model browsing. Use MPS format to capture full model detail.
\ Signature: 0xe8445ac406a3125e
Minimize
  - 0.04 x[0] - 0.25 x[1] - 0.06 x[2] - 0.94 x[3] - 0.44 x[4] - 0.95 x[5]
   - 0.12 x[6] - 0.46 x[7] - 0.29 x[8] - 0.85 x[9] - 0.41 x[10]
   - 0.53 x[11] - 0.93 x[12] - x[13] - 0.05 x[14] - 0.66 x[15] - 0.6 x[16]
   - 0.48 x[17] - 0.89 x[18] - 0.48 x[19] - 0.92 x[20] - 0.01 x[21]
   - 0.54 x[22] - 0.86 x[23] - 0.07 x[24] - 0.85 x[25] - 0.98 x[26]
   - 0.98 x[27] - 0.36 x[28] - 0.83 x[29] - 0.83 x[30] - 0.26 x[31]
   - 0.54 x[32] - 0.17 x[33] - 0.02 x[34] - 0.15 x[35] - 0.67 x[36]
   - 0.41 x[37] - 0.17 x[38] - 0.02 x[39]
Subject To
 primal_upper: 46 x[0] + 54 x[1] + 32 x[2] + 13 x[3] + 34 x[4] + 16 x[5]
   + 79 x[6] + 90 x[7] + 79 x[8] + 16 x[9] + 6 x[10] + 33 x[11] + 86 x[12]
   + 62 x[13] + 23 x[14] + 55 x[15] + 11 x[16] + 90 x[17] + 39 x[18]
   + 16 x[19] + 75 x[20] + 46 x[21] + 62 x[22] + 13 x[23] + 87 x[24]
   + 86 x[25] + 20 x[26] + 58 x[27] + 48 x[28] + 45 x[29] + 20 x[30]
   + 62 x[31] + 86 x[32] + 31 x[33] + 58 x[34] + 11 x[35] + 54 x[36]
   + 79 x[37] + 14 x[38] + 37 x[39] + 4.6 r[0] + 5.4 r[1] + 3.2 r[2]
   + 1.3 r[3] + 3.4 r[4] + 1.6 r[5] + 7.9 r[6] + 9 r[7] + 7.9 r[8]
   + 1.6 r[9] + 0.6 r[10] + 3.3 r[11] + 8.6 r[12] + 6.2 r[13] + 2.3 r[14]
   + 5.5 r[15] + 1.1 r[16] + 9 r[17] + 3.9 r[18] + 1.6 r[19] + 7.5 r[20]
   + 4.6 r[21] + 6.2 r[22] + 1.3 r[23] + 8.7 r[24] + 8.6 r[25] + 2 r[26]
   + 5.8 r[27] + 4.8 r[28] + 4.5 r[29] + 2 r[30] + 6.2 r[31] + 8.6 r[32]
   + 3.1 r[33] + 5.8 r[34] + 1.1 r[35] + 5.4 r[36] + 7.9 r[37] + 1.4 r[38]
   + 3.7 r[39] <= 170
 primal_lower: - 4.21 x[0] - 1.06 x[1] - 1.17 x[2] - 3.07 x[3] - 2.02 x[4]
   - 4.23 x[5] - 3.7 x[6] - 0.78 x[7] - 0.39 x[8] - 4.26 x[9] - 1.09 x[10]
   - 0.62 x[11] - 0.18 x[12] - 3.21 x[13] - 2.23 x[14] - 0.58 x[15]
   - 0.34 x[16] - 4.61 x[17] - 0.14 x[18] - 3.27 x[19] - 3.73 x[20]
   - 4.1 x[21] - 4.02 x[22] - 2.03 x[23] - 4.52 x[24] - 4.6 x[25]
   - 4.12 x[26] - 2.14 x[27] - 0.4 x[28] - 3.86 x[29] - 1.3 x[30]
   - 1.14 x[31] - 3.38 x[32] - 3.28 x[33] - 1.31 x[34] - 1.89 x[35]
   - 1.5 x[36] - 3.14 x[37] - 3.85 x[38] - 4.11 x[39] + 25 u[0] + 46 u[1]
   + 84 u[2] + 13 u[3] + 30 u[4] + 67 u[5] + 51 u[6] + 73 u[7] + 27 u[8]
   + 92 u[9] + 37 u[10] + 89 u[11] + 62 u[12] + 30 u[13] + 38 u[14]
   + 70 u[15] + 71 u[16] + 90 u[17] + 43 u[18] + 16 u[19] + 51 u[20]
   + 9 u[21] + 50 u[22] + 4 u[23] + 86 u[24] + 22 u[25] + 52 u[26]
   + 69 u[27] + 55 u[28] + 69 u[29] + 19 u[30] + 13 u[31] + 41 u[32]
   + 51 u[33] + 94 u[34] + 15 u[35] + 98 u[36] + 38 u[37] + 86 u[38]
   + 68 u[39] <= 185
 mccormick1[0]: - u[0] + r[0] <= 0
 mccormick1[1]: - u[1] + r[1] <= 0
 mccormick1[2]: - u[2] + r[2] <= 0
 mccormick1[3]: - u[3] + r[3] <= 0
 mccormick1[4]: - u[4] + r[4] <= 0
 mccormick1[5]: - u[5] + r[5] <= 0
 mccormick1[6]: - u[6] + r[6] <= 0
 mccormick1[7]: - u[7] + r[7] <= 0
 mccormick1[8]: - u[8] + r[8] <= 0
 mccormick1[9]: - u[9] + r[9] <= 0
 mccormick1[10]: - u[10] + r[10] <= 0
 mccormick1[11]: - u[11] + r[11] <= 0
 mccormick1[12]: - u[12] + r[12] <= 0
 mccormick1[13]: - u[13] + r[13] <= 0
 mccormick1[14]: - u[14] + r[14] <= 0
 mccormick1[15]: - u[15] + r[15] <= 0
 mccormick1[16]: - u[16] + r[16] <= 0
 mccormick1[17]: - u[17] + r[17] <= 0
 mccormick1[18]: - u[18] + r[18] <= 0
 mccormick1[19]: - u[19] + r[19] <= 0
 mccormick1[20]: - u[20] + r[20] <= 0
 mccormick1[21]: - u[21] + r[21] <= 0
 mccormick1[22]: - u[22] + r[22] <= 0
 mccormick1[23]: - u[23] + r[23] <= 0
 mccormick1[24]: - u[24] + r[24] <= 0
 mccormick1[25]: - u[25] + r[25] <= 0
 mccormick1[26]: - u[26] + r[26] <= 0
 mccormick1[27]: - u[27] + r[27] <= 0
 mccormick1[28]: - u[28] + r[28] <= 0
 mccormick1[29]: - u[29] + r[29] <= 0
 mccormick1[30]: - u[30] + r[30] <= 0
 mccormick1[31]: - u[31] + r[31] <= 0
 mccormick1[32]: - u[32] + r[32] <= 0
 mccormick1[33]: - u[33] + r[33] <= 0
 mccormick1[34]: - u[34] + r[34] <= 0
 mccormick1[35]: - u[35] + r[35] <= 0
 mccormick1[36]: - u[36] + r[36] <= 0
 mccormick1[37]: - u[37] + r[37] <= 0
 mccormick1[38]: - u[38] + r[38] <= 0
 mccormick1[39]: - u[39] + r[39] <= 0
 mccormick2[0]: - x[0] + r[0] <= 0
 mccormick2[1]: - x[1] + r[1] <= 0
 mccormick2[2]: - x[2] + r[2] <= 0
 mccormick2[3]: - x[3] + r[3] <= 0
 mccormick2[4]: - x[4] + r[4] <= 0
 mccormick2[5]: - x[5] + r[5] <= 0
 mccormick2[6]: - x[6] + r[6] <= 0
 mccormick2[7]: - x[7] + r[7] <= 0
 mccormick2[8]: - x[8] + r[8] <= 0
 mccormick2[9]: - x[9] + r[9] <= 0
 mccormick2[10]: - x[10] + r[10] <= 0
 mccormick2[11]: - x[11] + r[11] <= 0
 mccormick2[12]: - x[12] + r[12] <= 0
 mccormick2[13]: - x[13] + r[13] <= 0
 mccormick2[14]: - x[14] + r[14] <= 0
 mccormick2[15]: - x[15] + r[15] <= 0
 mccormick2[16]: - x[16] + r[16] <= 0
 mccormick2[17]: - x[17] + r[17] <= 0
 mccormick2[18]: - x[18] + r[18] <= 0
 mccormick2[19]: - x[19] + r[19] <= 0
 mccormick2[20]: - x[20] + r[20] <= 0
 mccormick2[21]: - x[21] + r[21] <= 0
 mccormick2[22]: - x[22] + r[22] <= 0
 mccormick2[23]: - x[23] + r[23] <= 0
 mccormick2[24]: - x[24] + r[24] <= 0
 mccormick2[25]: - x[25] + r[25] <= 0
 mccormick2[26]: - x[26] + r[26] <= 0
 mccormick2[27]: - x[27] + r[27] <= 0
 mccormick2[28]: - x[28] + r[28] <= 0
 mccormick2[29]: - x[29] + r[29] <= 0
 mccormick2[30]: - x[30] + r[30] <= 0
 mccormick2[31]: - x[31] + r[31] <= 0
 mccormick2[32]: - x[32] + r[32] <= 0
 mccormick2[33]: - x[33] + r[33] <= 0
 mccormick2[34]: - x[34] + r[34] <= 0
 mccormick2[35]: - x[35] + r[35] <= 0
 mccormick2[36]: - x[36] + r[36] <= 0
 mccormick2[37]: - x[37] + r[37] <= 0
 mccormick2[38]: - x[38] + r[38] <= 0
 mccormick2[39]: - x[39] + r[39] <= 0
 mccormick3[0]: x[0] + u[0] - r[0] <= 1
 mccormick3[1]: x[1] + u[1] - r[1] <= 1
 mccormick3[2]: x[2] + u[2] - r[2] <= 1
 mccormick3[3]: x[3] + u[3] - r[3] <= 1
 mccormick3[4]: x[4] + u[4] - r[4] <= 1
 mccormick3[5]: x[5] + u[5] - r[5] <= 1
 mccormick3[6]: x[6] + u[6] - r[6] <= 1
 mccormick3[7]: x[7] + u[7] - r[7] <= 1
 mccormick3[8]: x[8] + u[8] - r[8] <= 1
 mccormick3[9]: x[9] + u[9] - r[9] <= 1
 mccormick3[10]: x[10] + u[10] - r[10] <= 1
 mccormick3[11]: x[11] + u[11] - r[11] <= 1
 mccormick3[12]: x[12] + u[12] - r[12] <= 1
 mccormick3[13]: x[13] + u[13] - r[13] <= 1
 mccormick3[14]: x[14] + u[14] - r[14] <= 1
 mccormick3[15]: x[15] + u[15] - r[15] <= 1
 mccormick3[16]: x[16] + u[16] - r[16] <= 1
 mccormick3[17]: x[17] + u[17] - r[17] <= 1
 mccormick3[18]: x[18] + u[18] - r[18] <= 1
 mccormick3[19]: x[19] + u[19] - r[19] <= 1
 mccormick3[20]: x[20] + u[20] - r[20] <= 1
 mccormick3[21]: x[21] + u[21] - r[21] <= 1
 mccormick3[22]: x[22] + u[22] - r[22] <= 1
 mccormick3[23]: x[23] + u[23] - r[23] <= 1
 mccormick3[24]: x[24] + u[24] - r[24] <= 1
 mccormick3[25]: x[25] + u[25] - r[25] <= 1
 mccormick3[26]: x[26] + u[26] - r[26] <= 1
 mccormick3[27]: x[27] + u[27] - r[27] <= 1
 mccormick3[28]: x[28] + u[28] - r[28] <= 1
 mccormick3[29]: x[29] + u[29] - r[29] <= 1
 mccormick3[30]: x[30] + u[30] - r[30] <= 1
 mccormick3[31]: x[31] + u[31] - r[31] <= 1
 mccormick3[32]: x[32] + u[32] - r[32] <= 1
 mccormick3[33]: x[33] + u[33] - r[33] <= 1
 mccormick3[34]: x[34] + u[34] - r[34] <= 1
 mccormick3[35]: x[35] + u[35] - r[35] <= 1
 mccormick3[36]: x[36] + u[36] - r[36] <= 1
 mccormick3[37]: x[37] + u[37] - r[37] <= 1
 mccormick3[38]: x[38] + u[38] - r[38] <= 1
 mccormick3[39]: x[39] + u[39] - r[39] <= 1
Bounds
Binaries
 x[0] x[1] x[2] x[3] x[4] x[5] x[6] x[7] x[8] x[9] x[10] x[11] x[12] x[13]
 x[14] x[15] x[16] x[17] x[18] x[19] x[20] x[21] x[22] x[23] x[24] x[25]
 x[26] x[27] x[28] x[29] x[30] x[31] x[32] x[33] x[34] x[35] x[36] x[37]
 x[38] x[39] u[0] u[1] u[2] u[3] u[4] u[5] u[6] u[7] u[8] u[9] u[10] u[11]
 u[12] u[13] u[14] u[15] u[16] u[17] u[18] u[19] u[20] u[21] u[22] u[23]
 u[24] u[25] u[26] u[27] u[28] u[29] u[30] u[31] u[32] u[33] u[34] u[35]
 u[36] u[37] u[38] u[39] r[0] r[1] r[2] r[3] r[4] r[5] r[6] r[7] r[8] r[9]
 r[10] r[11] r[12] r[13] r[14] r[15] r[16] r[17] r[18] r[19] r[20] r[21]
 r[22] r[23] r[24] r[25] r[26] r[27] r[28] r[29] r[30] r[31] r[32] r[33]
 r[34] r[35] r[36] r[37] r[38] r[39]
End
