\ Model knapsack_90_2
\ LP format - for model browsing. Use MPS format to capture full model detail.
\ Signature: 0xe391a02c2a284989
Minimize
  - 0.47 x[0] - 0.75 x[1] - 0.45 x[2] - 0.61 x[3] - 0.02 x[4] - 0.1 x[5]
   - 0.94 x[6] - x[7] - 0.39 x[8] - 0.47 x[9] - x[10] - 0.52 x[11]
   - 0.76 x[12] - 0.43 x[13] - 0.76 x[14] - 0.53 x[15] - 0.63 x[16]
   - 0.07 x[17] - 0.75 x[18] - 0.5 x[19] - 0.9 x[20] - 0.16 x[21]
   - 0.37 x[22] - 0.73 x[23] - 0.54 x[24] - 0.67 x[25] - 0.17 x[26]
   - 0.88 x[27] - 0.51 x[28] - 0.85 x[29] - 0.94 x[30] - 0.01 x[31]
   - 0.45 x[32] - 0.2 x[33] - 0.8 x[34] - 0.82 x[35] - 0.82 x[36]
   - 0.88 x[37] - 0.23 x[38] - 0.4 x[39] - 0.21 x[40] - 0.38 x[41]
   - 0.46 x[42] - 0.12 x[43] - 0.71 x[44] - 0.8 x[45] - 0.05 x[46]
   - 0.13 x[47] - 0.05 x[48] - 0.26 x[49] - 0.12 x[50] - 0.47 x[51]
   - 0.72 x[52] - 0.06 x[53] - 0.77 x[54] - 0.23 x[55] - 0.87 x[56]
   - 0.89 x[57] - 0.93 x[58] - 0.88 x[59] - 0.85 x[60] - 0.11 x[61]
   - 0.18 x[62] - 0.06 x[63] - 0.59 x[64] - 0.98 x[65] - 0.58 x[66]
   - 0.14 x[67] - 0.89 x[68] - 0.54 x[69] - 0.1 x[70] - 0.72 x[71]
   - 0.78 x[72] - 0.9 x[73] - 0.19 x[74] - 0.51 x[75] - 0.87 x[76]
   - 0.38 x[77] - 0.89 x[78] - 0.12 x[79] - 0.64 x[80] - 0.39 x[81]
   - 0.26 x[82] - 0.83 x[83] - 0.66 x[84] - 0.93 x[85] - 0.35 x[86]
   - 0.84 x[87] - 0.89 x[88] - 0.75 x[89]
Subject To
 primal_upper: 82 x[0] + 51 x[1] + 5 x[2] + 90 x[3] + 11 x[4] + 64 x[5]
   + 96 x[6] + 2 x[7] + 32 x[8] + 53 x[9] + 2 x[10] + 18 x[11] + 31 x[12]
   + 51 x[13] + 27 x[14] + 19 x[15] + 64 x[16] + 23 x[17] + 4 x[18]
   + 37 x[19] + 24 x[20] + 94 x[21] + 43 x[22] + 29 x[23] + 11 x[24]
   + 79 x[25] + 77 x[26] + 82 x[27] + 68 x[28] + 42 x[29] + 24 x[30]
   + 38 x[31] + 94 x[32] + 52 x[33] + 67 x[34] + 48 x[35] + 47 x[36]
   + 63 x[37] + 43 x[38] + 13 x[39] + 74 x[40] + 24 x[41] + 49 x[42]
   + 40 x[43] + 82 x[44] + x[45] + 80 x[46] + 40 x[47] + 50 x[48]
   + 63 x[49] + 77 x[50] + 71 x[51] + 24 x[52] + 47 x[53] + 19 x[54]
   + 46 x[55] + 72 x[56] + 49 x[57] + 95 x[58] + 5 x[59] + 91 x[60]
   + 33 x[61] + 10 x[62] + 53 x[63] + 62 x[64] + 39 x[65] + 55 x[66]
   + 17 x[67] + 27 x[68] + 36 x[69] + 88 x[70] + 24 x[71] + 9 x[72]
   + 78 x[73] + 22 x[74] + 3 x[75] + 61 x[76] + 42 x[77] + 71 x[78]
   + 29 x[79] + 84 x[80] + 24 x[81] + 81 x[82] + 4 x[83] + 8 x[84]
   + 72 x[85] + 46 x[86] + 27 x[87] + 73 x[88] + 66 x[89] + 8.2 r[0]
   + 5.1 r[1] + 0.5 r[2] + 9 r[3] + 1.1 r[4] + 6.4 r[5] + 9.6 r[6]
   + 0.2 r[7] + 3.2 r[8] + 5.3 r[9] + 0.2 r[10] + 1.8 r[11] + 3.1 r[12]
   + 5.1 r[13] + 2.7 r[14] + 1.9 r[15] + 6.4 r[16] + 2.3 r[17] + 0.4 r[18]
   + 3.7 r[19] + 2.4 r[20] + 9.4 r[21] + 4.3 r[22] + 2.9 r[23] + 1.1 r[24]
   + 7.9 r[25] + 7.7 r[26] + 8.2 r[27] + 6.8 r[28] + 4.2 r[29] + 2.4 r[30]
   + 3.8 r[31] + 9.4 r[32] + 5.2 r[33] + 6.7 r[34] + 4.8 r[35] + 4.7 r[36]
   + 6.3 r[37] + 4.3 r[38] + 1.3 r[39] + 7.4 r[40] + 2.4 r[41] + 4.9 r[42]
   + 4 r[43] + 8.2 r[44] + 0.1 r[45] + 8 r[46] + 4 r[47] + 5 r[48]
   + 6.3 r[49] + 7.7 r[50] + 7.1 r[51] + 2.4 r[52] + 4.7 r[53] + 1.9 r[54]
   + 4.6 r[55] + 7.2 r[56] + 4.9 r[57] + 9.5 r[58] + 0.5 r[59] + 9.1 r[60]
   + 3.3 r[61] + r[62] + 5.3 r[63] + 6.2 r[64] + 3.9 r[65] + 5.5 r[66]
   + 1.7 r[67] + 2.7 r[68] + 3.6 r[69] + 8.8 r[70] + 2.4 r[71] + 0.9 r[72]
   + 7.8 r[73] + 2.2 r[74] + 0.3 r[75] + 6.1 r[76] + 4.2 r[77] + 7.1 r[78]
   + 2.9 r[79] + 8.4 r[80] + 2.4 r[81] + 8.1 r[82] + 0.4 r[83] + 0.8 r[84]
   + 7.2 r[85] + 4.6 r[86] + 2.7 r[87] + 7.3 r[88] + 6.6 r[89] <= 376
 primal_lower: - 4.03 x[0] - 4.14 x[1] - 1.04 x[2] - 1.52 x[3] - 2.19 x[4]
   - 0.47 x[5] - 2.94 x[6] - 3.12 x[7] - 3.29 x[8] - 3.8 x[9] - 0.81 x[10]
   - 1.69 x[11] - 3.27 x[12] - 3.7 x[13] - 1.48 x[14] - 0.14 x[15]
   - 1.24 x[16] - 4.33 x[17] - 1.83 x[18] - 4.54 x[19] - 1.48 x[20]
   - 0.73 x[21] - 4.14 x[22] - 2.2 x[23] - 1.68 x[24] - 3.9 x[25]
   - 3.97 x[26] - 2.45 x[28] - 1.05 x[29] - 0.87 x[30] - 0.62 x[31]
   - 2.62 x[32] - 2.42 x[33] - 1.87 x[34] - 4.27 x[35] - 1.4 x[36]
   - 3.37 x[37] - 3.37 x[38] - 2.19 x[39] - 0.93 x[40] - 4.06 x[41]
   - 0.62 x[42] - 4.32 x[43] - 1.24 x[44] - 0.51 x[45] - 2.85 x[46]
   - 1.74 x[47] - 1.83 x[48] - 0.55 x[49] - 2.79 x[50] - 3.61 x[51]
   - 0.75 x[52] - 2.16 x[53] - 2.79 x[54] - 2.45 x[55] - 1.91 x[56]
   - 1.59 x[57] - 4.14 x[58] - 3.84 x[59] - 0.3 x[60] - 1.66 x[61]
   - 3.6 x[62] - 1.08 x[63] - 1.25 x[64] - 0.79 x[65] - 2.8 x[66]
   - 2.56 x[67] - 0.02 x[68] - 4.27 x[69] - 2.87 x[70] - 2.63 x[71]
   - 3.27 x[72] - 4.4 x[73] - 3.58 x[74] - 2.39 x[75] - 0.67 x[76]
   - 4.39 x[77] - 2.76 x[78] - 3.08 x[79] - 3.3 x[80] - 3.41 x[81]
   - 2.42 x[82] - 3.01 x[83] - 1.69 x[84] - 0.46 x[85] - 1.74 x[86]
   - 0.71 x[87] - 3.32 x[88] - 2.11 x[89] + 23 u[0] + 43 u[1] + 5 u[2]
   + 90 u[3] + 11 u[4] + 41 u[5] + 72 u[6] + 47 u[7] + 100 u[8] + 49 u[9]
   + 87 u[10] + 90 u[11] + 11 u[12] + 87 u[13] + 4 u[14] + 12 u[15]
   + 100 u[16] + 83 u[17] + 68 u[18] + 37 u[19] + 44 u[20] + 43 u[21]
   + 11 u[22] + 46 u[23] + 48 u[24] + 63 u[25] + 17 u[26] + 79 u[27]
   + 25 u[28] + 38 u[29] + 65 u[30] + 59 u[31] + 67 u[32] + 44 u[33]
   + 87 u[34] + 72 u[35] + 91 u[36] + 12 u[37] + 23 u[38] + 42 u[39]
   + 98 u[40] + 65 u[41] + 69 u[42] + 65 u[43] + 2 u[44] + 42 u[45]
   + 93 u[46] + 53 u[47] + 78 u[48] + 11 u[49] + 94 u[50] + 15 u[51]
   + 40 u[52] + 95 u[53] + 92 u[54] + 3 u[55] + 32 u[56] + 90 u[57]
   + 27 u[58] + 13 u[59] + 24 u[60] + 78 u[61] + 15 u[62] + 54 u[63]
   + 63 u[64] + 3 u[65] + 8 u[66] + 26 u[67] + 79 u[68] + 49 u[69]
   + 33 u[70] + 93 u[71] + 89 u[72] + 58 u[73] + 75 u[74] + 40 u[75]
   + 26 u[76] + 70 u[77] + 20 u[78] + 30 u[79] + 73 u[80] + 25 u[81]
   + 66 u[82] + 25 u[83] + 29 u[84] + 13 u[85] + 31 u[86] + 31 u[87]
   + 89 u[88] + 98 u[89] <= 411
 mccormick1[0]: - u[0] + r[0] <= 0
 mccormick1[1]: - u[1] + r[1] <= 0
 mccormick1[2]: - u[2] + r[2] <= 0
 mccormick1[3]: - u[3] + r[3] <= 0
 mccormick1[4]: - u[4] + r[4] <= 0
 mccormick1[5]: - u[5] + r[5] <= 0
 mccormick1[6]: - u[6] + r[6] <= 0
 mccormick1[7]: - u[7] + r[7] <= 0
 mccormick1[8]: - u[8] + r[8] <= 0
 mccormick1[9]: - u[9] + r[9] <= 0
 mccormick1[10]: - u[10] + r[10] <= 0
 mccormick1[11]: - u[11] + r[11] <= 0
 mccormick1[12]: - u[12] + r[12] <= 0
 mccormick1[13]: - u[13] + r[13] <= 0
 mccormick1[14]: - u[14] + r[14] <= 0
 mccormick1[15]: - u[15] + r[15] <= 0
 mccormick1[16]: - u[16] + r[16] <= 0
 mccormick1[17]: - u[17] + r[17] <= 0
 mccormick1[18]: - u[18] + r[18] <= 0
 mccormick1[19]: - u[19] + r[19] <= 0
 mccormick1[20]: - u[20] + r[20] <= 0
 mccormick1[21]: - u[21] + r[21] <= 0
 mccormick1[22]: - u[22] + r[22] <= 0
 mccormick1[23]: - u[23] + r[23] <= 0
 mccormick1[24]: - u[24] + r[24] <= 0
 mccormick1[25]: - u[25] + r[25] <= 0
 mccormick1[26]: - u[26] + r[26] <= 0
 mccormick1[27]: - u[27] + r[27] <= 0
 mccormick1[28]: - u[28] + r[28] <= 0
 mccormick1[29]: - u[29] + r[29] <= 0
 mccormick1[30]: - u[30] + r[30] <= 0
 mccormick1[31]: - u[31] + r[31] <= 0
 mccormick1[32]: - u[32] + r[32] <= 0
 mccormick1[33]: - u[33] + r[33] <= 0
 mccormick1[34]: - u[34] + r[34] <= 0
 mccormick1[35]: - u[35] + r[35] <= 0
 mccormick1[36]: - u[36] + r[36] <= 0
 mccormick1[37]: - u[37] + r[37] <= 0
 mccormick1[38]: - u[38] + r[38] <= 0
 mccormick1[39]: - u[39] + r[39] <= 0
 mccormick1[40]: - u[40] + r[40] <= 0
 mccormick1[41]: - u[41] + r[41] <= 0
 mccormick1[42]: - u[42] + r[42] <= 0
 mccormick1[43]: - u[43] + r[43] <= 0
 mccormick1[44]: - u[44] + r[44] <= 0
 mccormick1[45]: - u[45] + r[45] <= 0
 mccormick1[46]: - u[46] + r[46] <= 0
 mccormick1[47]: - u[47] + r[47] <= 0
 mccormick1[48]: - u[48] + r[48] <= 0
 mccormick1[49]: - u[49] + r[49] <= 0
 mccormick1[50]: - u[50] + r[50] <= 0
 mccormick1[51]: - u[51] + r[51] <= 0
 mccormick1[52]: - u[52] + r[52] <= 0
 mccormick1[53]: - u[53] + r[53] <= 0
 mccormick1[54]: - u[54] + r[54] <= 0
 mccormick1[55]: - u[55] + r[55] <= 0
 mccormick1[56]: - u[56] + r[56] <= 0
 mccormick1[57]: - u[57] + r[57] <= 0
 mccormick1[58]: - u[58] + r[58] <= 0
 mccormick1[59]: - u[59] + r[59] <= 0
 mccormick1[60]: - u[60] + r[60] <= 0
 mccormick1[61]: - u[61] + r[61] <= 0
 mccormick1[62]: - u[62] + r[62] <= 0
 mccormick1[63]: - u[63] + r[63] <= 0
 mccormick1[64]: - u[64] + r[64] <= 0
 mccormick1[65]: - u[65] + r[65] <= 0
 mccormick1[66]: - u[66] + r[66] <= 0
 mccormick1[67]: - u[67] + r[67] <= 0
 mccormick1[68]: - u[68] + r[68] <= 0
 mccormick1[69]: - u[69] + r[69] <= 0
 mccormick1[70]: - u[70] + r[70] <= 0
 mccormick1[71]: - u[71] + r[71] <= 0
 mccormick1[72]: - u[72] + r[72] <= 0
 mccormick1[73]: - u[73] + r[73] <= 0
 mccormick1[74]: - u[74] + r[74] <= 0
 mccormick1[75]: - u[75] + r[75] <= 0
 mccormick1[76]: - u[76] + r[76] <= 0
 mccormick1[77]: - u[77] + r[77] <= 0
 mccormick1[78]: - u[78] + r[78] <= 0
 mccormick1[79]: - u[79] + r[79] <= 0
 mccormick1[80]: - u[80] + r[80] <= 0
 mccormick1[81]: - u[81] + r[81] <= 0
 mccormick1[82]: - u[82] + r[82] <= 0
 mccormick1[83]: - u[83] + r[83] <= 0
 mccormick1[84]: - u[84] + r[84] <= 0
 mccormick1[85]: - u[85] + r[85] <= 0
 mccormick1[86]: - u[86] + r[86] <= 0
 mccormick1[87]: - u[87] + r[87] <= 0
 mccormick1[88]: - u[88] + r[88] <= 0
 mccormick1[89]: - u[89] + r[89] <= 0
 mccormick2[0]: - x[0] + r[0] <= 0
 mccormick2[1]: - x[1] + r[1] <= 0
 mccormick2[2]: - x[2] + r[2] <= 0
 mccormick2[3]: - x[3] + r[3] <= 0
 mccormick2[4]: - x[4] + r[4] <= 0
 mccormick2[5]: - x[5] + r[5] <= 0
 mccormick2[6]: - x[6] + r[6] <= 0
 mccormick2[7]: - x[7] + r[7] <= 0
 mccormick2[8]: - x[8] + r[8] <= 0
 mccormick2[9]: - x[9] + r[9] <= 0
 mccormick2[10]: - x[10] + r[10] <= 0
 mccormick2[11]: - x[11] + r[11] <= 0
 mccormick2[12]: - x[12] + r[12] <= 0
 mccormick2[13]: - x[13] + r[13] <= 0
 mccormick2[14]: - x[14] + r[14] <= 0
 mccormick2[15]: - x[15] + r[15] <= 0
 mccormick2[16]: - x[16] + r[16] <= 0
 mccormick2[17]: - x[17] + r[17] <= 0
 mccormick2[18]: - x[18] + r[18] <= 0
 mccormick2[19]: - x[19] + r[19] <= 0
 mccormick2[20]: - x[20] + r[20] <= 0
 mccormick2[21]: - x[21] + r[21] <= 0
 mccormick2[22]: - x[22] + r[22] <= 0
 mccormick2[23]: - x[23] + r[23] <= 0
 mccormick2[24]: - x[24] + r[24] <= 0
 mccormick2[25]: - x[25] + r[25] <= 0
 mccormick2[26]: - x[26] + r[26] <= 0
 mccormick2[27]: - x[27] + r[27] <= 0
 mccormick2[28]: - x[28] + r[28] <= 0
 mccormick2[29]: - x[29] + r[29] <= 0
 mccormick2[30]: - x[30] + r[30] <= 0
 mccormick2[31]: - x[31] + r[31] <= 0
 mccormick2[32]: - x[32] + r[32] <= 0
 mccormick2[33]: - x[33] + r[33] <= 0
 mccormick2[34]: - x[34] + r[34] <= 0
 mccormick2[35]: - x[35] + r[35] <= 0
 mccormick2[36]: - x[36] + r[36] <= 0
 mccormick2[37]: - x[37] + r[37] <= 0
 mccormick2[38]: - x[38] + r[38] <= 0
 mccormick2[39]: - x[39] + r[39] <= 0
 mccormick2[40]: - x[40] + r[40] <= 0
 mccormick2[41]: - x[41] + r[41] <= 0
 mccormick2[42]: - x[42] + r[42] <= 0
 mccormick2[43]: - x[43] + r[43] <= 0
 mccormick2[44]: - x[44] + r[44] <= 0
 mccormick2[45]: - x[45] + r[45] <= 0
 mccormick2[46]: - x[46] + r[46] <= 0
 mccormick2[47]: - x[47] + r[47] <= 0
 mccormick2[48]: - x[48] + r[48] <= 0
 mccormick2[49]: - x[49] + r[49] <= 0
 mccormick2[50]: - x[50] + r[50] <= 0
 mccormick2[51]: - x[51] + r[51] <= 0
 mccormick2[52]: - x[52] + r[52] <= 0
 mccormick2[53]: - x[53] + r[53] <= 0
 mccormick2[54]: - x[54] + r[54] <= 0
 mccormick2[55]: - x[55] + r[55] <= 0
 mccormick2[56]: - x[56] + r[56] <= 0
 mccormick2[57]: - x[57] + r[57] <= 0
 mccormick2[58]: - x[58] + r[58] <= 0
 mccormick2[59]: - x[59] + r[59] <= 0
 mccormick2[60]: - x[60] + r[60] <= 0
 mccormick2[61]: - x[61] + r[61] <= 0
 mccormick2[62]: - x[62] + r[62] <= 0
 mccormick2[63]: - x[63] + r[63] <= 0
 mccormick2[64]: - x[64] + r[64] <= 0
 mccormick2[65]: - x[65] + r[65] <= 0
 mccormick2[66]: - x[66] + r[66] <= 0
 mccormick2[67]: - x[67] + r[67] <= 0
 mccormick2[68]: - x[68] + r[68] <= 0
 mccormick2[69]: - x[69] + r[69] <= 0
 mccormick2[70]: - x[70] + r[70] <= 0
 mccormick2[71]: - x[71] + r[71] <= 0
 mccormick2[72]: - x[72] + r[72] <= 0
 mccormick2[73]: - x[73] + r[73] <= 0
 mccormick2[74]: - x[74] + r[74] <= 0
 mccormick2[75]: - x[75] + r[75] <= 0
 mccormick2[76]: - x[76] + r[76] <= 0
 mccormick2[77]: - x[77] + r[77] <= 0
 mccormick2[78]: - x[78] + r[78] <= 0
 mccormick2[79]: - x[79] + r[79] <= 0
 mccormick2[80]: - x[80] + r[80] <= 0
 mccormick2[81]: - x[81] + r[81] <= 0
 mccormick2[82]: - x[82] + r[82] <= 0
 mccormick2[83]: - x[83] + r[83] <= 0
 mccormick2[84]: - x[84] + r[84] <= 0
 mccormick2[85]: - x[85] + r[85] <= 0
 mccormick2[86]: - x[86] + r[86] <= 0
 mccormick2[87]: - x[87] + r[87] <= 0
 mccormick2[88]: - x[88] + r[88] <= 0
 mccormick2[89]: - x[89] + r[89] <= 0
 mccormick3[0]: x[0] + u[0] - r[0] <= 1
 mccormick3[1]: x[1] + u[1] - r[1] <= 1
 mccormick3[2]: x[2] + u[2] - r[2] <= 1
 mccormick3[3]: x[3] + u[3] - r[3] <= 1
 mccormick3[4]: x[4] + u[4] - r[4] <= 1
 mccormick3[5]: x[5] + u[5] - r[5] <= 1
 mccormick3[6]: x[6] + u[6] - r[6] <= 1
 mccormick3[7]: x[7] + u[7] - r[7] <= 1
 mccormick3[8]: x[8] + u[8] - r[8] <= 1
 mccormick3[9]: x[9] + u[9] - r[9] <= 1
 mccormick3[10]: x[10] + u[10] - r[10] <= 1
 mccormick3[11]: x[11] + u[11] - r[11] <= 1
 mccormick3[12]: x[12] + u[12] - r[12] <= 1
 mccormick3[13]: x[13] + u[13] - r[13] <= 1
 mccormick3[14]: x[14] + u[14] - r[14] <= 1
 mccormick3[15]: x[15] + u[15] - r[15] <= 1
 mccormick3[16]: x[16] + u[16] - r[16] <= 1
 mccormick3[17]: x[17] + u[17] - r[17] <= 1
 mccormick3[18]: x[18] + u[18] - r[18] <= 1
 mccormick3[19]: x[19] + u[19] - r[19] <= 1
 mccormick3[20]: x[20] + u[20] - r[20] <= 1
 mccormick3[21]: x[21] + u[21] - r[21] <= 1
 mccormick3[22]: x[22] + u[22] - r[22] <= 1
 mccormick3[23]: x[23] + u[23] - r[23] <= 1
 mccormick3[24]: x[24] + u[24] - r[24] <= 1
 mccormick3[25]: x[25] + u[25] - r[25] <= 1
 mccormick3[26]: x[26] + u[26] - r[26] <= 1
 mccormick3[27]: x[27] + u[27] - r[27] <= 1
 mccormick3[28]: x[28] + u[28] - r[28] <= 1
 mccormick3[29]: x[29] + u[29] - r[29] <= 1
 mccormick3[30]: x[30] + u[30] - r[30] <= 1
 mccormick3[31]: x[31] + u[31] - r[31] <= 1
 mccormick3[32]: x[32] + u[32] - r[32] <= 1
 mccormick3[33]: x[33] + u[33] - r[33] <= 1
 mccormick3[34]: x[34] + u[34] - r[34] <= 1
 mccormick3[35]: x[35] + u[35] - r[35] <= 1
 mccormick3[36]: x[36] + u[36] - r[36] <= 1
 mccormick3[37]: x[37] + u[37] - r[37] <= 1
 mccormick3[38]: x[38] + u[38] - r[38] <= 1
 mccormick3[39]: x[39] + u[39] - r[39] <= 1
 mccormick3[40]: x[40] + u[40] - r[40] <= 1
 mccormick3[41]: x[41] + u[41] - r[41] <= 1
 mccormick3[42]: x[42] + u[42] - r[42] <= 1
 mccormick3[43]: x[43] + u[43] - r[43] <= 1
 mccormick3[44]: x[44] + u[44] - r[44] <= 1
 mccormick3[45]: x[45] + u[45] - r[45] <= 1
 mccormick3[46]: x[46] + u[46] - r[46] <= 1
 mccormick3[47]: x[47] + u[47] - r[47] <= 1
 mccormick3[48]: x[48] + u[48] - r[48] <= 1
 mccormick3[49]: x[49] + u[49] - r[49] <= 1
 mccormick3[50]: x[50] + u[50] - r[50] <= 1
 mccormick3[51]: x[51] + u[51] - r[51] <= 1
 mccormick3[52]: x[52] + u[52] - r[52] <= 1
 mccormick3[53]: x[53] + u[53] - r[53] <= 1
 mccormick3[54]: x[54] + u[54] - r[54] <= 1
 mccormick3[55]: x[55] + u[55] - r[55] <= 1
 mccormick3[56]: x[56] + u[56] - r[56] <= 1
 mccormick3[57]: x[57] + u[57] - r[57] <= 1
 mccormick3[58]: x[58] + u[58] - r[58] <= 1
 mccormick3[59]: x[59] + u[59] - r[59] <= 1
 mccormick3[60]: x[60] + u[60] - r[60] <= 1
 mccormick3[61]: x[61] + u[61] - r[61] <= 1
 mccormick3[62]: x[62] + u[62] - r[62] <= 1
 mccormick3[63]: x[63] + u[63] - r[63] <= 1
 mccormick3[64]: x[64] + u[64] - r[64] <= 1
 mccormick3[65]: x[65] + u[65] - r[65] <= 1
 mccormick3[66]: x[66] + u[66] - r[66] <= 1
 mccormick3[67]: x[67] + u[67] - r[67] <= 1
 mccormick3[68]: x[68] + u[68] - r[68] <= 1
 mccormick3[69]: x[69] + u[69] - r[69] <= 1
 mccormick3[70]: x[70] + u[70] - r[70] <= 1
 mccormick3[71]: x[71] + u[71] - r[71] <= 1
 mccormick3[72]: x[72] + u[72] - r[72] <= 1
 mccormick3[73]: x[73] + u[73] - r[73] <= 1
 mccormick3[74]: x[74] + u[74] - r[74] <= 1
 mccormick3[75]: x[75] + u[75] - r[75] <= 1
 mccormick3[76]: x[76] + u[76] - r[76] <= 1
 mccormick3[77]: x[77] + u[77] - r[77] <= 1
 mccormick3[78]: x[78] + u[78] - r[78] <= 1
 mccormick3[79]: x[79] + u[79] - r[79] <= 1
 mccormick3[80]: x[80] + u[80] - r[80] <= 1
 mccormick3[81]: x[81] + u[81] - r[81] <= 1
 mccormick3[82]: x[82] + u[82] - r[82] <= 1
 mccormick3[83]: x[83] + u[83] - r[83] <= 1
 mccormick3[84]: x[84] + u[84] - r[84] <= 1
 mccormick3[85]: x[85] + u[85] - r[85] <= 1
 mccormick3[86]: x[86] + u[86] - r[86] <= 1
 mccormick3[87]: x[87] + u[87] - r[87] <= 1
 mccormick3[88]: x[88] + u[88] - r[88] <= 1
 mccormick3[89]: x[89] + u[89] - r[89] <= 1
Bounds
Binaries
 x[0] x[1] x[2] x[3] x[4] x[5] x[6] x[7] x[8] x[9] x[10] x[11] x[12] x[13]
 x[14] x[15] x[16] x[17] x[18] x[19] x[20] x[21] x[22] x[23] x[24] x[25]
 x[26] x[27] x[28] x[29] x[30] x[31] x[32] x[33] x[34] x[35] x[36] x[37]
 x[38] x[39] x[40] x[41] x[42] x[43] x[44] x[45] x[46] x[47] x[48] x[49]
 x[50] x[51] x[52] x[53] x[54] x[55] x[56] x[57] x[58] x[59] x[60] x[61]
 x[62] x[63] x[64] x[65] x[66] x[67] x[68] x[69] x[70] x[71] x[72] x[73]
 x[74] x[75] x[76] x[77] x[78] x[79] x[80] x[81] x[82] x[83] x[84] x[85]
 x[86] x[87] x[88] x[89] u[0] u[1] u[2] u[3] u[4] u[5] u[6] u[7] u[8] u[9]
 u[10] u[11] u[12] u[13] u[14] u[15] u[16] u[17] u[18] u[19] u[20] u[21]
 u[22] u[23] u[24] u[25] u[26] u[27] u[28] u[29] u[30] u[31] u[32] u[33]
 u[34] u[35] u[36] u[37] u[38] u[39] u[40] u[41] u[42] u[43] u[44] u[45]
 u[46] u[47] u[48] u[49] u[50] u[51] u[52] u[53] u[54] u[55] u[56] u[57]
 u[58] u[59] u[60] u[61] u[62] u[63] u[64] u[65] u[66] u[67] u[68] u[69]
 u[70] u[71] u[72] u[73] u[74] u[75] u[76] u[77] u[78] u[79] u[80] u[81]
 u[82] u[83] u[84] u[85] u[86] u[87] u[88] u[89] r[0] r[1] r[2] r[3] r[4]
 r[5] r[6] r[7] r[8] r[9] r[10] r[11] r[12] r[13] r[14] r[15] r[16] r[17]
 r[18] r[19] r[20] r[21] r[22] r[23] r[24] r[25] r[26] r[27] r[28] r[29]
 r[30] r[31] r[32] r[33] r[34] r[35] r[36] r[37] r[38] r[39] r[40] r[41]
 r[42] r[43] r[44] r[45] r[46] r[47] r[48] r[49] r[50] r[51] r[52] r[53]
 r[54] r[55] r[56] r[57] r[58] r[59] r[60] r[61] r[62] r[63] r[64] r[65]
 r[66] r[67] r[68] r[69] r[70] r[71] r[72] r[73] r[74] r[75] r[76] r[77]
 r[78] r[79] r[80] r[81] r[82] r[83] r[84] r[85] r[86] r[87] r[88] r[89]
End
