\ Model knapsack_40_1
\ LP format - for model browsing. Use MPS format to capture full model detail.
\ Signature: 0xe8445ac406a3125e
Minimize
  - 0.88 x[0] - 0.44 x[1] - 0.74 x[2] - 0.78 x[3] - 0.11 x[4] - 0.19 x[5]
   - 0.87 x[6] - 0.41 x[7] - 0.64 x[8] - 0.04 x[9] - 0.05 x[10]
   - 0.41 x[11] - 0.21 x[12] - 0.88 x[13] - 0.61 x[14] - 0.78 x[15]
   - 0.8 x[16] - 0.84 x[17] - 0.24 x[18] - 0.35 x[19] - 0.07 x[20]
   - 0.85 x[21] - 0.02 x[22] - 0.46 x[23] - 0.59 x[24] - 0.44 x[25]
   - 0.54 x[26] - 0.25 x[27] - x[28] - 0.82 x[29] - 0.83 x[30] - 0.66 x[31]
   - 0.14 x[32] - 0.21 x[33] - 0.57 x[34] - 0.15 x[35] - 0.79 x[36]
   - 0.77 x[37] - 0.08 x[38] - 0.85 x[39]
Subject To
 primal_upper: 43 x[0] + 52 x[1] + 10 x[2] + 79 x[3] + 64 x[4] + 57 x[5]
   + 53 x[6] + 91 x[7] + 9 x[8] + 10 x[9] + 99 x[10] + 47 x[11] + 76 x[12]
   + 68 x[13] + 44 x[14] + 40 x[15] + 77 x[16] + 88 x[17] + 41 x[18]
   + 46 x[19] + 89 x[20] + 47 x[21] + 96 x[22] + 78 x[23] + 72 x[24]
   + 60 x[25] + 6 x[26] + 11 x[27] + 89 x[28] + 11 x[29] + 61 x[30]
   + 51 x[31] + 59 x[32] + 5 x[33] + 80 x[34] + 29 x[35] + 24 x[36]
   + 100 x[37] + 100 x[38] + 42 x[39] + 4.3 r[0] + 5.2 r[1] + r[2]
   + 7.9 r[3] + 6.4 r[4] + 5.7 r[5] + 5.3 r[6] + 9.1 r[7] + 0.9 r[8] + r[9]
   + 9.9 r[10] + 4.7 r[11] + 7.6 r[12] + 6.8 r[13] + 4.4 r[14] + 4 r[15]
   + 7.7 r[16] + 8.8 r[17] + 4.1 r[18] + 4.6 r[19] + 8.9 r[20] + 4.7 r[21]
   + 9.6 r[22] + 7.8 r[23] + 7.2 r[24] + 6 r[25] + 0.6 r[26] + 1.1 r[27]
   + 8.9 r[28] + 1.1 r[29] + 6.1 r[30] + 5.1 r[31] + 5.9 r[32] + 0.5 r[33]
   + 8 r[34] + 2.9 r[35] + 2.4 r[36] + 10 r[37] + 10 r[38] + 4.2 r[39]
   <= 200
 primal_lower: - 0.91 x[0] - 1.53 x[1] - 1.45 x[2] - 1.53 x[3] - 2.37 x[4]
   - 2.61 x[5] - 2.81 x[6] - 0.77 x[7] - 0.43 x[8] - 3.17 x[9] - 2.78 x[10]
   - 2.63 x[11] - 0.4 x[12] - 3.27 x[13] - 0.31 x[14] - 3.1 x[15]
   - 1.57 x[16] - 0.67 x[17] - 0.19 x[18] - 1.64 x[19] - 2.51 x[20]
   - 2.07 x[21] - 3.21 x[22] - 0.24 x[23] - 1.39 x[24] - 1.34 x[25]
   - 2.78 x[26] - 2.37 x[27] - 0.44 x[28] - 0.11 x[29] - 1.53 x[30]
   - 0.97 x[31] - 0.28 x[32] - 0.83 x[33] - 3.23 x[34] - 1.23 x[35]
   - 0.5 x[36] - 0.4 x[37] - 0.57 x[38] - 2.49 x[39] + 57 u[0] + 10 u[1]
   + 96 u[2] + 21 u[3] + 50 u[4] + 99 u[5] + 91 u[6] + 37 u[7] + 67 u[8]
   + 88 u[9] + 21 u[10] + 33 u[11] + 10 u[12] + 66 u[13] + 18 u[14]
   + 2 u[15] + 3 u[16] + 38 u[17] + 3 u[18] + 56 u[19] + 27 u[20]
   + 41 u[21] + 46 u[22] + 44 u[23] + 14 u[24] + 14 u[25] + 24 u[26]
   + 9 u[27] + 35 u[28] + 37 u[29] + 83 u[30] + 9 u[31] + 29 u[32]
   + 35 u[33] + 42 u[34] + 47 u[35] + 50 u[36] + 10 u[37] + 10 u[38]
   + 36 u[39] <= 137
 mccormick1[0]: - u[0] + r[0] <= 0
 mccormick1[1]: - u[1] + r[1] <= 0
 mccormick1[2]: - u[2] + r[2] <= 0
 mccormick1[3]: - u[3] + r[3] <= 0
 mccormick1[4]: - u[4] + r[4] <= 0
 mccormick1[5]: - u[5] + r[5] <= 0
 mccormick1[6]: - u[6] + r[6] <= 0
 mccormick1[7]: - u[7] + r[7] <= 0
 mccormick1[8]: - u[8] + r[8] <= 0
 mccormick1[9]: - u[9] + r[9] <= 0
 mccormick1[10]: - u[10] + r[10] <= 0
 mccormick1[11]: - u[11] + r[11] <= 0
 mccormick1[12]: - u[12] + r[12] <= 0
 mccormick1[13]: - u[13] + r[13] <= 0
 mccormick1[14]: - u[14] + r[14] <= 0
 mccormick1[15]: - u[15] + r[15] <= 0
 mccormick1[16]: - u[16] + r[16] <= 0
 mccormick1[17]: - u[17] + r[17] <= 0
 mccormick1[18]: - u[18] + r[18] <= 0
 mccormick1[19]: - u[19] + r[19] <= 0
 mccormick1[20]: - u[20] + r[20] <= 0
 mccormick1[21]: - u[21] + r[21] <= 0
 mccormick1[22]: - u[22] + r[22] <= 0
 mccormick1[23]: - u[23] + r[23] <= 0
 mccormick1[24]: - u[24] + r[24] <= 0
 mccormick1[25]: - u[25] + r[25] <= 0
 mccormick1[26]: - u[26] + r[26] <= 0
 mccormick1[27]: - u[27] + r[27] <= 0
 mccormick1[28]: - u[28] + r[28] <= 0
 mccormick1[29]: - u[29] + r[29] <= 0
 mccormick1[30]: - u[30] + r[30] <= 0
 mccormick1[31]: - u[31] + r[31] <= 0
 mccormick1[32]: - u[32] + r[32] <= 0
 mccormick1[33]: - u[33] + r[33] <= 0
 mccormick1[34]: - u[34] + r[34] <= 0
 mccormick1[35]: - u[35] + r[35] <= 0
 mccormick1[36]: - u[36] + r[36] <= 0
 mccormick1[37]: - u[37] + r[37] <= 0
 mccormick1[38]: - u[38] + r[38] <= 0
 mccormick1[39]: - u[39] + r[39] <= 0
 mccormick2[0]: - x[0] + r[0] <= 0
 mccormick2[1]: - x[1] + r[1] <= 0
 mccormick2[2]: - x[2] + r[2] <= 0
 mccormick2[3]: - x[3] + r[3] <= 0
 mccormick2[4]: - x[4] + r[4] <= 0
 mccormick2[5]: - x[5] + r[5] <= 0
 mccormick2[6]: - x[6] + r[6] <= 0
 mccormick2[7]: - x[7] + r[7] <= 0
 mccormick2[8]: - x[8] + r[8] <= 0
 mccormick2[9]: - x[9] + r[9] <= 0
 mccormick2[10]: - x[10] + r[10] <= 0
 mccormick2[11]: - x[11] + r[11] <= 0
 mccormick2[12]: - x[12] + r[12] <= 0
 mccormick2[13]: - x[13] + r[13] <= 0
 mccormick2[14]: - x[14] + r[14] <= 0
 mccormick2[15]: - x[15] + r[15] <= 0
 mccormick2[16]: - x[16] + r[16] <= 0
 mccormick2[17]: - x[17] + r[17] <= 0
 mccormick2[18]: - x[18] + r[18] <= 0
 mccormick2[19]: - x[19] + r[19] <= 0
 mccormick2[20]: - x[20] + r[20] <= 0
 mccormick2[21]: - x[21] + r[21] <= 0
 mccormick2[22]: - x[22] + r[22] <= 0
 mccormick2[23]: - x[23] + r[23] <= 0
 mccormick2[24]: - x[24] + r[24] <= 0
 mccormick2[25]: - x[25] + r[25] <= 0
 mccormick2[26]: - x[26] + r[26] <= 0
 mccormick2[27]: - x[27] + r[27] <= 0
 mccormick2[28]: - x[28] + r[28] <= 0
 mccormick2[29]: - x[29] + r[29] <= 0
 mccormick2[30]: - x[30] + r[30] <= 0
 mccormick2[31]: - x[31] + r[31] <= 0
 mccormick2[32]: - x[32] + r[32] <= 0
 mccormick2[33]: - x[33] + r[33] <= 0
 mccormick2[34]: - x[34] + r[34] <= 0
 mccormick2[35]: - x[35] + r[35] <= 0
 mccormick2[36]: - x[36] + r[36] <= 0
 mccormick2[37]: - x[37] + r[37] <= 0
 mccormick2[38]: - x[38] + r[38] <= 0
 mccormick2[39]: - x[39] + r[39] <= 0
 mccormick3[0]: x[0] + u[0] - r[0] <= 1
 mccormick3[1]: x[1] + u[1] - r[1] <= 1
 mccormick3[2]: x[2] + u[2] - r[2] <= 1
 mccormick3[3]: x[3] + u[3] - r[3] <= 1
 mccormick3[4]: x[4] + u[4] - r[4] <= 1
 mccormick3[5]: x[5] + u[5] - r[5] <= 1
 mccormick3[6]: x[6] + u[6] - r[6] <= 1
 mccormick3[7]: x[7] + u[7] - r[7] <= 1
 mccormick3[8]: x[8] + u[8] - r[8] <= 1
 mccormick3[9]: x[9] + u[9] - r[9] <= 1
 mccormick3[10]: x[10] + u[10] - r[10] <= 1
 mccormick3[11]: x[11] + u[11] - r[11] <= 1
 mccormick3[12]: x[12] + u[12] - r[12] <= 1
 mccormick3[13]: x[13] + u[13] - r[13] <= 1
 mccormick3[14]: x[14] + u[14] - r[14] <= 1
 mccormick3[15]: x[15] + u[15] - r[15] <= 1
 mccormick3[16]: x[16] + u[16] - r[16] <= 1
 mccormick3[17]: x[17] + u[17] - r[17] <= 1
 mccormick3[18]: x[18] + u[18] - r[18] <= 1
 mccormick3[19]: x[19] + u[19] - r[19] <= 1
 mccormick3[20]: x[20] + u[20] - r[20] <= 1
 mccormick3[21]: x[21] + u[21] - r[21] <= 1
 mccormick3[22]: x[22] + u[22] - r[22] <= 1
 mccormick3[23]: x[23] + u[23] - r[23] <= 1
 mccormick3[24]: x[24] + u[24] - r[24] <= 1
 mccormick3[25]: x[25] + u[25] - r[25] <= 1
 mccormick3[26]: x[26] + u[26] - r[26] <= 1
 mccormick3[27]: x[27] + u[27] - r[27] <= 1
 mccormick3[28]: x[28] + u[28] - r[28] <= 1
 mccormick3[29]: x[29] + u[29] - r[29] <= 1
 mccormick3[30]: x[30] + u[30] - r[30] <= 1
 mccormick3[31]: x[31] + u[31] - r[31] <= 1
 mccormick3[32]: x[32] + u[32] - r[32] <= 1
 mccormick3[33]: x[33] + u[33] - r[33] <= 1
 mccormick3[34]: x[34] + u[34] - r[34] <= 1
 mccormick3[35]: x[35] + u[35] - r[35] <= 1
 mccormick3[36]: x[36] + u[36] - r[36] <= 1
 mccormick3[37]: x[37] + u[37] - r[37] <= 1
 mccormick3[38]: x[38] + u[38] - r[38] <= 1
 mccormick3[39]: x[39] + u[39] - r[39] <= 1
Bounds
Binaries
 x[0] x[1] x[2] x[3] x[4] x[5] x[6] x[7] x[8] x[9] x[10] x[11] x[12] x[13]
 x[14] x[15] x[16] x[17] x[18] x[19] x[20] x[21] x[22] x[23] x[24] x[25]
 x[26] x[27] x[28] x[29] x[30] x[31] x[32] x[33] x[34] x[35] x[36] x[37]
 x[38] x[39] u[0] u[1] u[2] u[3] u[4] u[5] u[6] u[7] u[8] u[9] u[10] u[11]
 u[12] u[13] u[14] u[15] u[16] u[17] u[18] u[19] u[20] u[21] u[22] u[23]
 u[24] u[25] u[26] u[27] u[28] u[29] u[30] u[31] u[32] u[33] u[34] u[35]
 u[36] u[37] u[38] u[39] r[0] r[1] r[2] r[3] r[4] r[5] r[6] r[7] r[8] r[9]
 r[10] r[11] r[12] r[13] r[14] r[15] r[16] r[17] r[18] r[19] r[20] r[21]
 r[22] r[23] r[24] r[25] r[26] r[27] r[28] r[29] r[30] r[31] r[32] r[33]
 r[34] r[35] r[36] r[37] r[38] r[39]
End
