\ Model knapsack_80_9
\ LP format - for model browsing. Use MPS format to capture full model detail.
\ Signature: 0xf86d0bbf74a4bb8e
Minimize
  - 0.04 x[0] - 0.25 x[1] - 0.06 x[2] - 0.94 x[3] - 0.44 x[4] - 0.95 x[5]
   - 0.12 x[6] - 0.46 x[7] - 0.29 x[8] - 0.85 x[9] - 0.41 x[10]
   - 0.53 x[11] - 0.93 x[12] - x[13] - 0.05 x[14] - 0.66 x[15] - 0.6 x[16]
   - 0.48 x[17] - 0.89 x[18] - 0.48 x[19] - 0.92 x[20] - 0.01 x[21]
   - 0.54 x[22] - 0.86 x[23] - 0.07 x[24] - 0.85 x[25] - 0.98 x[26]
   - 0.98 x[27] - 0.36 x[28] - 0.83 x[29] - 0.83 x[30] - 0.26 x[31]
   - 0.54 x[32] - 0.17 x[33] - 0.02 x[34] - 0.15 x[35] - 0.67 x[36]
   - 0.41 x[37] - 0.17 x[38] - 0.02 x[39] - 0.74 x[40] - 0.56 x[41]
   - 0.12 x[42] - 0.93 x[43] - 0.53 x[44] - 0.09 x[45] - 0.99 x[46]
   - 0.11 x[47] - 0.99 x[48] - 0.36 x[49] - 0.93 x[50] - 0.85 x[51]
   - 0.73 x[52] - 0.27 x[53] - 0.78 x[54] - 0.32 x[55] - 0.13 x[56]
   - 0.5 x[57] - 0.74 x[58] - 0.45 x[59] - 0.7 x[60] - 0.04 x[61]
   - 0.88 x[62] - 0.12 x[63] - 0.61 x[64] - 0.91 x[65] - 0.95 x[66] - x[67]
   - 0.03 x[68] - 0.92 x[69] - 0.11 x[70] - 0.93 x[71] - 0.31 x[72]
   - 0.4 x[73] - 0.17 x[74] - x[75] - 0.84 x[76] - 0.51 x[77] - 0.78 x[78]
   - 0.14 x[79]
Subject To
 primal_upper: 46 x[0] + 54 x[1] + 32 x[2] + 13 x[3] + 34 x[4] + 16 x[5]
   + 79 x[6] + 90 x[7] + 79 x[8] + 16 x[9] + 6 x[10] + 33 x[11] + 86 x[12]
   + 62 x[13] + 23 x[14] + 55 x[15] + 11 x[16] + 90 x[17] + 39 x[18]
   + 16 x[19] + 75 x[20] + 46 x[21] + 62 x[22] + 13 x[23] + 87 x[24]
   + 86 x[25] + 20 x[26] + 58 x[27] + 48 x[28] + 45 x[29] + 20 x[30]
   + 62 x[31] + 86 x[32] + 31 x[33] + 58 x[34] + 11 x[35] + 54 x[36]
   + 79 x[37] + 14 x[38] + 37 x[39] + 53 x[40] + 48 x[41] + 4 x[42]
   + 92 x[43] + 73 x[44] + 65 x[45] + 84 x[46] + 12 x[47] + 57 x[48]
   + 78 x[49] + 9 x[50] + 38 x[51] + 35 x[52] + 18 x[53] + 7 x[54]
   + 70 x[55] + 23 x[56] + 61 x[57] + 98 x[58] + 32 x[59] + 7 x[60]
   + 33 x[61] + 98 x[62] + 65 x[63] + 18 x[64] + 42 x[65] + 23 x[66]
   + 37 x[67] + 74 x[68] + 20 x[69] + 36 x[70] + 64 x[71] + 96 x[72]
   + x[73] + 78 x[74] + 7 x[75] + 61 x[76] + x[77] + 15 x[78] + 49 x[79]
   + 4.6 r[0] + 5.4 r[1] + 3.2 r[2] + 1.3 r[3] + 3.4 r[4] + 1.6 r[5]
   + 7.9 r[6] + 9 r[7] + 7.9 r[8] + 1.6 r[9] + 0.6 r[10] + 3.3 r[11]
   + 8.6 r[12] + 6.2 r[13] + 2.3 r[14] + 5.5 r[15] + 1.1 r[16] + 9 r[17]
   + 3.9 r[18] + 1.6 r[19] + 7.5 r[20] + 4.6 r[21] + 6.2 r[22] + 1.3 r[23]
   + 8.7 r[24] + 8.6 r[25] + 2 r[26] + 5.8 r[27] + 4.8 r[28] + 4.5 r[29]
   + 2 r[30] + 6.2 r[31] + 8.6 r[32] + 3.1 r[33] + 5.8 r[34] + 1.1 r[35]
   + 5.4 r[36] + 7.9 r[37] + 1.4 r[38] + 3.7 r[39] + 5.3 r[40] + 4.8 r[41]
   + 0.4 r[42] + 9.2 r[43] + 7.3 r[44] + 6.5 r[45] + 8.4 r[46] + 1.2 r[47]
   + 5.7 r[48] + 7.8 r[49] + 0.9 r[50] + 3.8 r[51] + 3.5 r[52] + 1.8 r[53]
   + 0.7 r[54] + 7 r[55] + 2.3 r[56] + 6.1 r[57] + 9.8 r[58] + 3.2 r[59]
   + 0.7 r[60] + 3.3 r[61] + 9.8 r[62] + 6.5 r[63] + 1.8 r[64] + 4.2 r[65]
   + 2.3 r[66] + 3.7 r[67] + 7.4 r[68] + 2 r[69] + 3.6 r[70] + 6.4 r[71]
   + 9.6 r[72] + 0.1 r[73] + 7.8 r[74] + 0.7 r[75] + 6.1 r[76] + 0.1 r[77]
   + 1.5 r[78] + 4.9 r[79] <= 332
 primal_lower: - 4.32 x[0] - 1.08 x[1] - 1.2 x[2] - 3.15 x[3] - 2.07 x[4]
   - 4.34 x[5] - 3.8 x[6] - 0.8 x[7] - 0.4 x[8] - 4.38 x[9] - 1.12 x[10]
   - 0.64 x[11] - 0.18 x[12] - 3.3 x[13] - 2.29 x[14] - 0.6 x[15]
   - 0.35 x[16] - 4.73 x[17] - 0.15 x[18] - 3.36 x[19] - 3.83 x[20]
   - 4.21 x[21] - 4.13 x[22] - 2.09 x[23] - 4.65 x[24] - 4.72 x[25]
   - 4.23 x[26] - 2.2 x[27] - 0.41 x[28] - 3.96 x[29] - 1.34 x[30]
   - 1.17 x[31] - 3.47 x[32] - 3.37 x[33] - 1.34 x[34] - 1.94 x[35]
   - 1.55 x[36] - 3.22 x[37] - 3.95 x[38] - 4.22 x[39] - 4.17 x[40]
   - 2.45 x[41] - 3.39 x[42] - 1.65 x[43] - 3.76 x[44] - 0.86 x[45]
   - 2.9 x[46] - 2.67 x[47] - 3 x[48] - 4.09 x[49] - 1.14 x[50]
   - 2.53 x[51] - 3.67 x[52] - 2.01 x[53] - 3.74 x[54] - 3.7 x[55]
   - 3.52 x[56] - 4.17 x[57] - 1.44 x[58] - 4.6 x[59] - 1.45 x[60]
   - 0.56 x[61] - 3.03 x[62] - 2.52 x[63] - 2.86 x[64] - 3.27 x[65]
   - 1.58 x[66] - 3.55 x[67] - 3.21 x[68] - 4.01 x[69] - 1.71 x[70]
   - 4.56 x[71] - 1.14 x[72] - 4.65 x[73] - 1.13 x[74] - 2.28 x[75]
   - 3.03 x[76] - 2.38 x[77] - 3.76 x[78] - 2.75 x[79] + 25 u[0] + 46 u[1]
   + 84 u[2] + 13 u[3] + 30 u[4] + 67 u[5] + 51 u[6] + 73 u[7] + 27 u[8]
   + 92 u[9] + 37 u[10] + 89 u[11] + 62 u[12] + 30 u[13] + 38 u[14]
   + 70 u[15] + 71 u[16] + 90 u[17] + 43 u[18] + 16 u[19] + 51 u[20]
   + 9 u[21] + 50 u[22] + 4 u[23] + 86 u[24] + 22 u[25] + 52 u[26]
   + 69 u[27] + 55 u[28] + 69 u[29] + 19 u[30] + 13 u[31] + 41 u[32]
   + 51 u[33] + 94 u[34] + 15 u[35] + 98 u[36] + 38 u[37] + 86 u[38]
   + 68 u[39] + 81 u[40] + 3 u[41] + 12 u[42] + 55 u[43] + 97 u[44]
   + 8 u[45] + 23 u[46] + 39 u[47] + 85 u[48] + 74 u[49] + 8 u[50]
   + 42 u[51] + 79 u[52] + 26 u[53] + 30 u[54] + 65 u[55] + 95 u[56]
   + 92 u[57] + 86 u[58] + 40 u[59] + 54 u[60] + 48 u[61] + 5 u[62]
   + 68 u[63] + 41 u[64] + 70 u[65] + 82 u[66] + 16 u[67] + 90 u[68]
   + 43 u[69] + 63 u[70] + 83 u[71] + 68 u[72] + 69 u[73] + 29 u[74]
   + 50 u[75] + 84 u[76] + 81 u[77] + 38 u[78] + 16 u[79] <= 380
 mccormick1[0]: - u[0] + r[0] <= 0
 mccormick1[1]: - u[1] + r[1] <= 0
 mccormick1[2]: - u[2] + r[2] <= 0
 mccormick1[3]: - u[3] + r[3] <= 0
 mccormick1[4]: - u[4] + r[4] <= 0
 mccormick1[5]: - u[5] + r[5] <= 0
 mccormick1[6]: - u[6] + r[6] <= 0
 mccormick1[7]: - u[7] + r[7] <= 0
 mccormick1[8]: - u[8] + r[8] <= 0
 mccormick1[9]: - u[9] + r[9] <= 0
 mccormick1[10]: - u[10] + r[10] <= 0
 mccormick1[11]: - u[11] + r[11] <= 0
 mccormick1[12]: - u[12] + r[12] <= 0
 mccormick1[13]: - u[13] + r[13] <= 0
 mccormick1[14]: - u[14] + r[14] <= 0
 mccormick1[15]: - u[15] + r[15] <= 0
 mccormick1[16]: - u[16] + r[16] <= 0
 mccormick1[17]: - u[17] + r[17] <= 0
 mccormick1[18]: - u[18] + r[18] <= 0
 mccormick1[19]: - u[19] + r[19] <= 0
 mccormick1[20]: - u[20] + r[20] <= 0
 mccormick1[21]: - u[21] + r[21] <= 0
 mccormick1[22]: - u[22] + r[22] <= 0
 mccormick1[23]: - u[23] + r[23] <= 0
 mccormick1[24]: - u[24] + r[24] <= 0
 mccormick1[25]: - u[25] + r[25] <= 0
 mccormick1[26]: - u[26] + r[26] <= 0
 mccormick1[27]: - u[27] + r[27] <= 0
 mccormick1[28]: - u[28] + r[28] <= 0
 mccormick1[29]: - u[29] + r[29] <= 0
 mccormick1[30]: - u[30] + r[30] <= 0
 mccormick1[31]: - u[31] + r[31] <= 0
 mccormick1[32]: - u[32] + r[32] <= 0
 mccormick1[33]: - u[33] + r[33] <= 0
 mccormick1[34]: - u[34] + r[34] <= 0
 mccormick1[35]: - u[35] + r[35] <= 0
 mccormick1[36]: - u[36] + r[36] <= 0
 mccormick1[37]: - u[37] + r[37] <= 0
 mccormick1[38]: - u[38] + r[38] <= 0
 mccormick1[39]: - u[39] + r[39] <= 0
 mccormick1[40]: - u[40] + r[40] <= 0
 mccormick1[41]: - u[41] + r[41] <= 0
 mccormick1[42]: - u[42] + r[42] <= 0
 mccormick1[43]: - u[43] + r[43] <= 0
 mccormick1[44]: - u[44] + r[44] <= 0
 mccormick1[45]: - u[45] + r[45] <= 0
 mccormick1[46]: - u[46] + r[46] <= 0
 mccormick1[47]: - u[47] + r[47] <= 0
 mccormick1[48]: - u[48] + r[48] <= 0
 mccormick1[49]: - u[49] + r[49] <= 0
 mccormick1[50]: - u[50] + r[50] <= 0
 mccormick1[51]: - u[51] + r[51] <= 0
 mccormick1[52]: - u[52] + r[52] <= 0
 mccormick1[53]: - u[53] + r[53] <= 0
 mccormick1[54]: - u[54] + r[54] <= 0
 mccormick1[55]: - u[55] + r[55] <= 0
 mccormick1[56]: - u[56] + r[56] <= 0
 mccormick1[57]: - u[57] + r[57] <= 0
 mccormick1[58]: - u[58] + r[58] <= 0
 mccormick1[59]: - u[59] + r[59] <= 0
 mccormick1[60]: - u[60] + r[60] <= 0
 mccormick1[61]: - u[61] + r[61] <= 0
 mccormick1[62]: - u[62] + r[62] <= 0
 mccormick1[63]: - u[63] + r[63] <= 0
 mccormick1[64]: - u[64] + r[64] <= 0
 mccormick1[65]: - u[65] + r[65] <= 0
 mccormick1[66]: - u[66] + r[66] <= 0
 mccormick1[67]: - u[67] + r[67] <= 0
 mccormick1[68]: - u[68] + r[68] <= 0
 mccormick1[69]: - u[69] + r[69] <= 0
 mccormick1[70]: - u[70] + r[70] <= 0
 mccormick1[71]: - u[71] + r[71] <= 0
 mccormick1[72]: - u[72] + r[72] <= 0
 mccormick1[73]: - u[73] + r[73] <= 0
 mccormick1[74]: - u[74] + r[74] <= 0
 mccormick1[75]: - u[75] + r[75] <= 0
 mccormick1[76]: - u[76] + r[76] <= 0
 mccormick1[77]: - u[77] + r[77] <= 0
 mccormick1[78]: - u[78] + r[78] <= 0
 mccormick1[79]: - u[79] + r[79] <= 0
 mccormick2[0]: - x[0] + r[0] <= 0
 mccormick2[1]: - x[1] + r[1] <= 0
 mccormick2[2]: - x[2] + r[2] <= 0
 mccormick2[3]: - x[3] + r[3] <= 0
 mccormick2[4]: - x[4] + r[4] <= 0
 mccormick2[5]: - x[5] + r[5] <= 0
 mccormick2[6]: - x[6] + r[6] <= 0
 mccormick2[7]: - x[7] + r[7] <= 0
 mccormick2[8]: - x[8] + r[8] <= 0
 mccormick2[9]: - x[9] + r[9] <= 0
 mccormick2[10]: - x[10] + r[10] <= 0
 mccormick2[11]: - x[11] + r[11] <= 0
 mccormick2[12]: - x[12] + r[12] <= 0
 mccormick2[13]: - x[13] + r[13] <= 0
 mccormick2[14]: - x[14] + r[14] <= 0
 mccormick2[15]: - x[15] + r[15] <= 0
 mccormick2[16]: - x[16] + r[16] <= 0
 mccormick2[17]: - x[17] + r[17] <= 0
 mccormick2[18]: - x[18] + r[18] <= 0
 mccormick2[19]: - x[19] + r[19] <= 0
 mccormick2[20]: - x[20] + r[20] <= 0
 mccormick2[21]: - x[21] + r[21] <= 0
 mccormick2[22]: - x[22] + r[22] <= 0
 mccormick2[23]: - x[23] + r[23] <= 0
 mccormick2[24]: - x[24] + r[24] <= 0
 mccormick2[25]: - x[25] + r[25] <= 0
 mccormick2[26]: - x[26] + r[26] <= 0
 mccormick2[27]: - x[27] + r[27] <= 0
 mccormick2[28]: - x[28] + r[28] <= 0
 mccormick2[29]: - x[29] + r[29] <= 0
 mccormick2[30]: - x[30] + r[30] <= 0
 mccormick2[31]: - x[31] + r[31] <= 0
 mccormick2[32]: - x[32] + r[32] <= 0
 mccormick2[33]: - x[33] + r[33] <= 0
 mccormick2[34]: - x[34] + r[34] <= 0
 mccormick2[35]: - x[35] + r[35] <= 0
 mccormick2[36]: - x[36] + r[36] <= 0
 mccormick2[37]: - x[37] + r[37] <= 0
 mccormick2[38]: - x[38] + r[38] <= 0
 mccormick2[39]: - x[39] + r[39] <= 0
 mccormick2[40]: - x[40] + r[40] <= 0
 mccormick2[41]: - x[41] + r[41] <= 0
 mccormick2[42]: - x[42] + r[42] <= 0
 mccormick2[43]: - x[43] + r[43] <= 0
 mccormick2[44]: - x[44] + r[44] <= 0
 mccormick2[45]: - x[45] + r[45] <= 0
 mccormick2[46]: - x[46] + r[46] <= 0
 mccormick2[47]: - x[47] + r[47] <= 0
 mccormick2[48]: - x[48] + r[48] <= 0
 mccormick2[49]: - x[49] + r[49] <= 0
 mccormick2[50]: - x[50] + r[50] <= 0
 mccormick2[51]: - x[51] + r[51] <= 0
 mccormick2[52]: - x[52] + r[52] <= 0
 mccormick2[53]: - x[53] + r[53] <= 0
 mccormick2[54]: - x[54] + r[54] <= 0
 mccormick2[55]: - x[55] + r[55] <= 0
 mccormick2[56]: - x[56] + r[56] <= 0
 mccormick2[57]: - x[57] + r[57] <= 0
 mccormick2[58]: - x[58] + r[58] <= 0
 mccormick2[59]: - x[59] + r[59] <= 0
 mccormick2[60]: - x[60] + r[60] <= 0
 mccormick2[61]: - x[61] + r[61] <= 0
 mccormick2[62]: - x[62] + r[62] <= 0
 mccormick2[63]: - x[63] + r[63] <= 0
 mccormick2[64]: - x[64] + r[64] <= 0
 mccormick2[65]: - x[65] + r[65] <= 0
 mccormick2[66]: - x[66] + r[66] <= 0
 mccormick2[67]: - x[67] + r[67] <= 0
 mccormick2[68]: - x[68] + r[68] <= 0
 mccormick2[69]: - x[69] + r[69] <= 0
 mccormick2[70]: - x[70] + r[70] <= 0
 mccormick2[71]: - x[71] + r[71] <= 0
 mccormick2[72]: - x[72] + r[72] <= 0
 mccormick2[73]: - x[73] + r[73] <= 0
 mccormick2[74]: - x[74] + r[74] <= 0
 mccormick2[75]: - x[75] + r[75] <= 0
 mccormick2[76]: - x[76] + r[76] <= 0
 mccormick2[77]: - x[77] + r[77] <= 0
 mccormick2[78]: - x[78] + r[78] <= 0
 mccormick2[79]: - x[79] + r[79] <= 0
 mccormick3[0]: x[0] + u[0] - r[0] <= 1
 mccormick3[1]: x[1] + u[1] - r[1] <= 1
 mccormick3[2]: x[2] + u[2] - r[2] <= 1
 mccormick3[3]: x[3] + u[3] - r[3] <= 1
 mccormick3[4]: x[4] + u[4] - r[4] <= 1
 mccormick3[5]: x[5] + u[5] - r[5] <= 1
 mccormick3[6]: x[6] + u[6] - r[6] <= 1
 mccormick3[7]: x[7] + u[7] - r[7] <= 1
 mccormick3[8]: x[8] + u[8] - r[8] <= 1
 mccormick3[9]: x[9] + u[9] - r[9] <= 1
 mccormick3[10]: x[10] + u[10] - r[10] <= 1
 mccormick3[11]: x[11] + u[11] - r[11] <= 1
 mccormick3[12]: x[12] + u[12] - r[12] <= 1
 mccormick3[13]: x[13] + u[13] - r[13] <= 1
 mccormick3[14]: x[14] + u[14] - r[14] <= 1
 mccormick3[15]: x[15] + u[15] - r[15] <= 1
 mccormick3[16]: x[16] + u[16] - r[16] <= 1
 mccormick3[17]: x[17] + u[17] - r[17] <= 1
 mccormick3[18]: x[18] + u[18] - r[18] <= 1
 mccormick3[19]: x[19] + u[19] - r[19] <= 1
 mccormick3[20]: x[20] + u[20] - r[20] <= 1
 mccormick3[21]: x[21] + u[21] - r[21] <= 1
 mccormick3[22]: x[22] + u[22] - r[22] <= 1
 mccormick3[23]: x[23] + u[23] - r[23] <= 1
 mccormick3[24]: x[24] + u[24] - r[24] <= 1
 mccormick3[25]: x[25] + u[25] - r[25] <= 1
 mccormick3[26]: x[26] + u[26] - r[26] <= 1
 mccormick3[27]: x[27] + u[27] - r[27] <= 1
 mccormick3[28]: x[28] + u[28] - r[28] <= 1
 mccormick3[29]: x[29] + u[29] - r[29] <= 1
 mccormick3[30]: x[30] + u[30] - r[30] <= 1
 mccormick3[31]: x[31] + u[31] - r[31] <= 1
 mccormick3[32]: x[32] + u[32] - r[32] <= 1
 mccormick3[33]: x[33] + u[33] - r[33] <= 1
 mccormick3[34]: x[34] + u[34] - r[34] <= 1
 mccormick3[35]: x[35] + u[35] - r[35] <= 1
 mccormick3[36]: x[36] + u[36] - r[36] <= 1
 mccormick3[37]: x[37] + u[37] - r[37] <= 1
 mccormick3[38]: x[38] + u[38] - r[38] <= 1
 mccormick3[39]: x[39] + u[39] - r[39] <= 1
 mccormick3[40]: x[40] + u[40] - r[40] <= 1
 mccormick3[41]: x[41] + u[41] - r[41] <= 1
 mccormick3[42]: x[42] + u[42] - r[42] <= 1
 mccormick3[43]: x[43] + u[43] - r[43] <= 1
 mccormick3[44]: x[44] + u[44] - r[44] <= 1
 mccormick3[45]: x[45] + u[45] - r[45] <= 1
 mccormick3[46]: x[46] + u[46] - r[46] <= 1
 mccormick3[47]: x[47] + u[47] - r[47] <= 1
 mccormick3[48]: x[48] + u[48] - r[48] <= 1
 mccormick3[49]: x[49] + u[49] - r[49] <= 1
 mccormick3[50]: x[50] + u[50] - r[50] <= 1
 mccormick3[51]: x[51] + u[51] - r[51] <= 1
 mccormick3[52]: x[52] + u[52] - r[52] <= 1
 mccormick3[53]: x[53] + u[53] - r[53] <= 1
 mccormick3[54]: x[54] + u[54] - r[54] <= 1
 mccormick3[55]: x[55] + u[55] - r[55] <= 1
 mccormick3[56]: x[56] + u[56] - r[56] <= 1
 mccormick3[57]: x[57] + u[57] - r[57] <= 1
 mccormick3[58]: x[58] + u[58] - r[58] <= 1
 mccormick3[59]: x[59] + u[59] - r[59] <= 1
 mccormick3[60]: x[60] + u[60] - r[60] <= 1
 mccormick3[61]: x[61] + u[61] - r[61] <= 1
 mccormick3[62]: x[62] + u[62] - r[62] <= 1
 mccormick3[63]: x[63] + u[63] - r[63] <= 1
 mccormick3[64]: x[64] + u[64] - r[64] <= 1
 mccormick3[65]: x[65] + u[65] - r[65] <= 1
 mccormick3[66]: x[66] + u[66] - r[66] <= 1
 mccormick3[67]: x[67] + u[67] - r[67] <= 1
 mccormick3[68]: x[68] + u[68] - r[68] <= 1
 mccormick3[69]: x[69] + u[69] - r[69] <= 1
 mccormick3[70]: x[70] + u[70] - r[70] <= 1
 mccormick3[71]: x[71] + u[71] - r[71] <= 1
 mccormick3[72]: x[72] + u[72] - r[72] <= 1
 mccormick3[73]: x[73] + u[73] - r[73] <= 1
 mccormick3[74]: x[74] + u[74] - r[74] <= 1
 mccormick3[75]: x[75] + u[75] - r[75] <= 1
 mccormick3[76]: x[76] + u[76] - r[76] <= 1
 mccormick3[77]: x[77] + u[77] - r[77] <= 1
 mccormick3[78]: x[78] + u[78] - r[78] <= 1
 mccormick3[79]: x[79] + u[79] - r[79] <= 1
Bounds
Binaries
 x[0] x[1] x[2] x[3] x[4] x[5] x[6] x[7] x[8] x[9] x[10] x[11] x[12] x[13]
 x[14] x[15] x[16] x[17] x[18] x[19] x[20] x[21] x[22] x[23] x[24] x[25]
 x[26] x[27] x[28] x[29] x[30] x[31] x[32] x[33] x[34] x[35] x[36] x[37]
 x[38] x[39] x[40] x[41] x[42] x[43] x[44] x[45] x[46] x[47] x[48] x[49]
 x[50] x[51] x[52] x[53] x[54] x[55] x[56] x[57] x[58] x[59] x[60] x[61]
 x[62] x[63] x[64] x[65] x[66] x[67] x[68] x[69] x[70] x[71] x[72] x[73]
 x[74] x[75] x[76] x[77] x[78] x[79] u[0] u[1] u[2] u[3] u[4] u[5] u[6]
 u[7] u[8] u[9] u[10] u[11] u[12] u[13] u[14] u[15] u[16] u[17] u[18] u[19]
 u[20] u[21] u[22] u[23] u[24] u[25] u[26] u[27] u[28] u[29] u[30] u[31]
 u[32] u[33] u[34] u[35] u[36] u[37] u[38] u[39] u[40] u[41] u[42] u[43]
 u[44] u[45] u[46] u[47] u[48] u[49] u[50] u[51] u[52] u[53] u[54] u[55]
 u[56] u[57] u[58] u[59] u[60] u[61] u[62] u[63] u[64] u[65] u[66] u[67]
 u[68] u[69] u[70] u[71] u[72] u[73] u[74] u[75] u[76] u[77] u[78] u[79]
 r[0] r[1] r[2] r[3] r[4] r[5] r[6] r[7] r[8] r[9] r[10] r[11] r[12] r[13]
 r[14] r[15] r[16] r[17] r[18] r[19] r[20] r[21] r[22] r[23] r[24] r[25]
 r[26] r[27] r[28] r[29] r[30] r[31] r[32] r[33] r[34] r[35] r[36] r[37]
 r[38] r[39] r[40] r[41] r[42] r[43] r[44] r[45] r[46] r[47] r[48] r[49]
 r[50] r[51] r[52] r[53] r[54] r[55] r[56] r[57] r[58] r[59] r[60] r[61]
 r[62] r[63] r[64] r[65] r[66] r[67] r[68] r[69] r[70] r[71] r[72] r[73]
 r[74] r[75] r[76] r[77] r[78] r[79]
End
