\ Model knapsack_130_9
\ LP format - for model browsing. Use MPS format to capture full model detail.
\ Signature: 0x8c644a484ac26804
Minimize
  - 0.04 x[0] - 0.25 x[1] - 0.06 x[2] - 0.94 x[3] - 0.44 x[4] - 0.95 x[5]
   - 0.12 x[6] - 0.46 x[7] - 0.29 x[8] - 0.85 x[9] - 0.41 x[10]
   - 0.53 x[11] - 0.93 x[12] - x[13] - 0.05 x[14] - 0.66 x[15] - 0.6 x[16]
   - 0.48 x[17] - 0.89 x[18] - 0.48 x[19] - 0.92 x[20] - 0.01 x[21]
   - 0.54 x[22] - 0.86 x[23] - 0.07 x[24] - 0.85 x[25] - 0.98 x[26]
   - 0.98 x[27] - 0.36 x[28] - 0.83 x[29] - 0.83 x[30] - 0.26 x[31]
   - 0.54 x[32] - 0.17 x[33] - 0.02 x[34] - 0.15 x[35] - 0.67 x[36]
   - 0.41 x[37] - 0.17 x[38] - 0.02 x[39] - 0.74 x[40] - 0.56 x[41]
   - 0.12 x[42] - 0.93 x[43] - 0.53 x[44] - 0.09 x[45] - 0.99 x[46]
   - 0.11 x[47] - 0.99 x[48] - 0.36 x[49] - 0.93 x[50] - 0.85 x[51]
   - 0.73 x[52] - 0.27 x[53] - 0.78 x[54] - 0.32 x[55] - 0.13 x[56]
   - 0.5 x[57] - 0.74 x[58] - 0.45 x[59] - 0.7 x[60] - 0.04 x[61]
   - 0.88 x[62] - 0.12 x[63] - 0.61 x[64] - 0.91 x[65] - 0.95 x[66] - x[67]
   - 0.03 x[68] - 0.92 x[69] - 0.11 x[70] - 0.93 x[71] - 0.31 x[72]
   - 0.4 x[73] - 0.17 x[74] - x[75] - 0.84 x[76] - 0.51 x[77] - 0.78 x[78]
   - 0.14 x[79] - 0.61 x[80] - 0.08 x[81] - 0.04 x[82] - 0.2 x[83]
   - 0.59 x[84] - 0.19 x[85] - 0.12 x[86] - 0.57 x[87] - 0.46 x[88]
   - 0.73 x[89] - 0.2 x[90] - 0.52 x[91] - 0.84 x[92] - 0.83 x[93]
   - 0.5 x[94] - 0.45 x[95] - 0.15 x[96] - 0.38 x[97] - 0.83 x[98]
   - 0.75 x[99] - 0.39 x[100] - 0.92 x[101] - 0.09 x[102] - 0.24 x[103]
   - 0.45 x[104] - 0.21 x[105] - 0.88 x[106] - 0.31 x[107] - 0.68 x[108]
   - 0.99 x[109] - 0.6 x[110] - 0.88 x[111] - 0.28 x[112] - 0.54 x[113]
   - 0.08 x[114] - 0.43 x[115] - 0.25 x[116] - 0.35 x[117] - 0.68 x[118]
   - 0.73 x[119] - 0.72 x[120] - 0.85 x[121] - 0.72 x[122] - 0.77 x[123]
   - 0.1 x[124] - 0.59 x[125] - 0.79 x[126] - 0.48 x[127] - 0.82 x[128]
   - 0.07 x[129]
Subject To
 primal_upper: 46 x[0] + 54 x[1] + 32 x[2] + 13 x[3] + 34 x[4] + 16 x[5]
   + 79 x[6] + 90 x[7] + 79 x[8] + 16 x[9] + 6 x[10] + 33 x[11] + 86 x[12]
   + 62 x[13] + 23 x[14] + 55 x[15] + 11 x[16] + 90 x[17] + 39 x[18]
   + 16 x[19] + 75 x[20] + 46 x[21] + 62 x[22] + 13 x[23] + 87 x[24]
   + 86 x[25] + 20 x[26] + 58 x[27] + 48 x[28] + 45 x[29] + 20 x[30]
   + 62 x[31] + 86 x[32] + 31 x[33] + 58 x[34] + 11 x[35] + 54 x[36]
   + 79 x[37] + 14 x[38] + 37 x[39] + 53 x[40] + 48 x[41] + 4 x[42]
   + 92 x[43] + 73 x[44] + 65 x[45] + 84 x[46] + 12 x[47] + 57 x[48]
   + 78 x[49] + 9 x[50] + 38 x[51] + 35 x[52] + 18 x[53] + 7 x[54]
   + 70 x[55] + 23 x[56] + 61 x[57] + 98 x[58] + 32 x[59] + 7 x[60]
   + 33 x[61] + 98 x[62] + 65 x[63] + 18 x[64] + 42 x[65] + 23 x[66]
   + 37 x[67] + 74 x[68] + 20 x[69] + 36 x[70] + 64 x[71] + 96 x[72]
   + x[73] + 78 x[74] + 7 x[75] + 61 x[76] + x[77] + 15 x[78] + 49 x[79]
   + 64 x[80] + 4 x[81] + x[82] + 68 x[83] + 16 x[84] + 100 x[85]
   + 10 x[86] + 34 x[87] + 24 x[88] + 93 x[89] + 43 x[90] + 75 x[91]
   + 27 x[92] + 6 x[93] + 94 x[94] + 27 x[95] + 39 x[96] + 39 x[97]
   + 74 x[98] + 58 x[99] + 67 x[100] + 90 x[101] + 32 x[102] + 30 x[103]
   + 51 x[104] + 68 x[105] + 97 x[106] + 41 x[107] + 73 x[108] + 23 x[109]
   + 29 x[110] + 17 x[111] + 51 x[112] + 7 x[113] + 51 x[114] + 25 x[115]
   + 97 x[116] + 11 x[117] + 35 x[118] + 43 x[119] + 74 x[120] + 3 x[121]
   + 78 x[122] + 29 x[123] + 71 x[124] + 45 x[125] + 82 x[126] + 10 x[127]
   + 37 x[128] + 81 x[129] + 4.6 r[0] + 5.4 r[1] + 3.2 r[2] + 1.3 r[3]
   + 3.4 r[4] + 1.6 r[5] + 7.9 r[6] + 9 r[7] + 7.9 r[8] + 1.6 r[9]
   + 0.6 r[10] + 3.3 r[11] + 8.6 r[12] + 6.2 r[13] + 2.3 r[14] + 5.5 r[15]
   + 1.1 r[16] + 9 r[17] + 3.9 r[18] + 1.6 r[19] + 7.5 r[20] + 4.6 r[21]
   + 6.2 r[22] + 1.3 r[23] + 8.7 r[24] + 8.6 r[25] + 2 r[26] + 5.8 r[27]
   + 4.8 r[28] + 4.5 r[29] + 2 r[30] + 6.2 r[31] + 8.6 r[32] + 3.1 r[33]
   + 5.8 r[34] + 1.1 r[35] + 5.4 r[36] + 7.9 r[37] + 1.4 r[38] + 3.7 r[39]
   + 5.3 r[40] + 4.8 r[41] + 0.4 r[42] + 9.2 r[43] + 7.3 r[44] + 6.5 r[45]
   + 8.4 r[46] + 1.2 r[47] + 5.7 r[48] + 7.8 r[49] + 0.9 r[50] + 3.8 r[51]
   + 3.5 r[52] + 1.8 r[53] + 0.7 r[54] + 7 r[55] + 2.3 r[56] + 6.1 r[57]
   + 9.8 r[58] + 3.2 r[59] + 0.7 r[60] + 3.3 r[61] + 9.8 r[62] + 6.5 r[63]
   + 1.8 r[64] + 4.2 r[65] + 2.3 r[66] + 3.7 r[67] + 7.4 r[68] + 2 r[69]
   + 3.6 r[70] + 6.4 r[71] + 9.6 r[72] + 0.1 r[73] + 7.8 r[74] + 0.7 r[75]
   + 6.1 r[76] + 0.1 r[77] + 1.5 r[78] + 4.9 r[79] + 6.4 r[80] + 0.4 r[81]
   + 0.1 r[82] + 6.8 r[83] + 1.6 r[84] + 10 r[85] + r[86] + 3.4 r[87]
   + 2.4 r[88] + 9.3 r[89] + 4.3 r[90] + 7.5 r[91] + 2.7 r[92] + 0.6 r[93]
   + 9.4 r[94] + 2.7 r[95] + 3.9 r[96] + 3.9 r[97] + 7.4 r[98] + 5.8 r[99]
   + 6.7 r[100] + 9 r[101] + 3.2 r[102] + 3 r[103] + 5.1 r[104]
   + 6.8 r[105] + 9.7 r[106] + 4.1 r[107] + 7.3 r[108] + 2.3 r[109]
   + 2.9 r[110] + 1.7 r[111] + 5.1 r[112] + 0.7 r[113] + 5.1 r[114]
   + 2.5 r[115] + 9.7 r[116] + 1.1 r[117] + 3.5 r[118] + 4.3 r[119]
   + 7.4 r[120] + 0.3 r[121] + 7.8 r[122] + 2.9 r[123] + 7.1 r[124]
   + 4.5 r[125] + 8.2 r[126] + r[127] + 3.7 r[128] + 8.1 r[129] <= 545
 primal_lower: - 4.1 x[0] - 1.03 x[1] - 1.13 x[2] - 2.98 x[3] - 1.96 x[4]
   - 4.11 x[5] - 3.6 x[6] - 0.76 x[7] - 0.38 x[8] - 4.15 x[9] - 1.06 x[10]
   - 0.61 x[11] - 0.17 x[12] - 3.12 x[13] - 2.17 x[14] - 0.57 x[15]
   - 0.33 x[16] - 4.48 x[17] - 0.14 x[18] - 3.18 x[19] - 3.63 x[20]
   - 3.99 x[21] - 3.91 x[22] - 1.98 x[23] - 4.4 x[24] - 4.47 x[25]
   - 4.01 x[26] - 2.08 x[27] - 0.39 x[28] - 3.76 x[29] - 1.27 x[30]
   - 1.11 x[31] - 3.29 x[32] - 3.19 x[33] - 1.27 x[34] - 1.84 x[35]
   - 1.46 x[36] - 3.05 x[37] - 3.75 x[38] - 4 x[39] - 3.95 x[40]
   - 2.32 x[41] - 3.21 x[42] - 1.56 x[43] - 3.56 x[44] - 0.81 x[45]
   - 2.75 x[46] - 2.53 x[47] - 2.84 x[48] - 3.87 x[49] - 1.08 x[50]
   - 2.39 x[51] - 3.48 x[52] - 1.9 x[53] - 3.55 x[54] - 3.5 x[55]
   - 3.34 x[56] - 3.95 x[57] - 1.36 x[58] - 4.35 x[59] - 1.38 x[60]
   - 0.53 x[61] - 2.87 x[62] - 2.39 x[63] - 2.71 x[64] - 3.1 x[65]
   - 1.5 x[66] - 3.36 x[67] - 3.04 x[68] - 3.8 x[69] - 1.62 x[70]
   - 4.32 x[71] - 1.08 x[72] - 4.41 x[73] - 1.07 x[74] - 2.16 x[75]
   - 2.87 x[76] - 2.26 x[77] - 3.57 x[78] - 2.61 x[79] - 3.36 x[80]
   - 0.11 x[81] - 2.32 x[82] - 3.58 x[83] - 2.62 x[84] - 4.49 x[85]
   - 3.28 x[86] - 4.25 x[87] - 3.57 x[88] - 2.41 x[89] - 2.69 x[90]
   - 1.35 x[91] - 3.52 x[92] - 4.36 x[93] - 0.3 x[94] - 2 x[95]
   - 2.72 x[96] - 2.35 x[97] - 0.61 x[98] - 0.43 x[99] - 3.49 x[100]
   - 0.67 x[101] - 2.34 x[102] - 2.32 x[103] - 3.66 x[104] - 3.43 x[105]
   - 4.15 x[106] - 2.45 x[107] - 0.09 x[108] - 2.25 x[109] - 4.02 x[110]
   - 4.26 x[111] - 2.56 x[112] - 3.43 x[113] - 0.7 x[114] - 1.41 x[115]
   - 1.57 x[116] - 4.09 x[117] - 3.97 x[118] - 3.67 x[119] - 4.24 x[120]
   - 1.4 x[121] - 1.18 x[122] - 2.39 x[123] - 0.13 x[124] - 4.37 x[125]
   - 3.96 x[126] - 1.25 x[127] - 0.16 x[128] - 1.15 x[129] + 25 u[0]
   + 46 u[1] + 84 u[2] + 13 u[3] + 30 u[4] + 67 u[5] + 51 u[6] + 73 u[7]
   + 27 u[8] + 92 u[9] + 37 u[10] + 89 u[11] + 62 u[12] + 30 u[13]
   + 38 u[14] + 70 u[15] + 71 u[16] + 90 u[17] + 43 u[18] + 16 u[19]
   + 51 u[20] + 9 u[21] + 50 u[22] + 4 u[23] + 86 u[24] + 22 u[25]
   + 52 u[26] + 69 u[27] + 55 u[28] + 69 u[29] + 19 u[30] + 13 u[31]
   + 41 u[32] + 51 u[33] + 94 u[34] + 15 u[35] + 98 u[36] + 38 u[37]
   + 86 u[38] + 68 u[39] + 81 u[40] + 3 u[41] + 12 u[42] + 55 u[43]
   + 97 u[44] + 8 u[45] + 23 u[46] + 39 u[47] + 85 u[48] + 74 u[49]
   + 8 u[50] + 42 u[51] + 79 u[52] + 26 u[53] + 30 u[54] + 65 u[55]
   + 95 u[56] + 92 u[57] + 86 u[58] + 40 u[59] + 54 u[60] + 48 u[61]
   + 5 u[62] + 68 u[63] + 41 u[64] + 70 u[65] + 82 u[66] + 16 u[67]
   + 90 u[68] + 43 u[69] + 63 u[70] + 83 u[71] + 68 u[72] + 69 u[73]
   + 29 u[74] + 50 u[75] + 84 u[76] + 81 u[77] + 38 u[78] + 16 u[79]
   + 3 u[80] + 95 u[81] + 24 u[82] + 95 u[83] + 47 u[84] + 47 u[85]
   + 41 u[86] + 2 u[87] + 16 u[88] + 69 u[89] + 38 u[90] + 82 u[91]
   + 6 u[92] + 93 u[93] + 86 u[94] + 11 u[95] + 67 u[96] + 2 u[97]
   + 2 u[98] + 78 u[99] + 75 u[100] + 86 u[101] + 56 u[102] + 74 u[103]
   + 75 u[104] + 4 u[105] + 69 u[106] + 84 u[107] + 96 u[108] + 35 u[109]
   + 44 u[110] + u[111] + 27 u[112] + 7 u[113] + 51 u[114] + 8 u[115]
   + u[116] + 51 u[117] + 51 u[118] + 78 u[119] + 17 u[120] + 70 u[121]
   + 61 u[122] + 16 u[123] + 35 u[124] + 16 u[125] + 13 u[126] + 93 u[127]
   + 28 u[128] + 33 u[129] <= 585
 mccormick1[0]: - u[0] + r[0] <= 0
 mccormick1[1]: - u[1] + r[1] <= 0
 mccormick1[2]: - u[2] + r[2] <= 0
 mccormick1[3]: - u[3] + r[3] <= 0
 mccormick1[4]: - u[4] + r[4] <= 0
 mccormick1[5]: - u[5] + r[5] <= 0
 mccormick1[6]: - u[6] + r[6] <= 0
 mccormick1[7]: - u[7] + r[7] <= 0
 mccormick1[8]: - u[8] + r[8] <= 0
 mccormick1[9]: - u[9] + r[9] <= 0
 mccormick1[10]: - u[10] + r[10] <= 0
 mccormick1[11]: - u[11] + r[11] <= 0
 mccormick1[12]: - u[12] + r[12] <= 0
 mccormick1[13]: - u[13] + r[13] <= 0
 mccormick1[14]: - u[14] + r[14] <= 0
 mccormick1[15]: - u[15] + r[15] <= 0
 mccormick1[16]: - u[16] + r[16] <= 0
 mccormick1[17]: - u[17] + r[17] <= 0
 mccormick1[18]: - u[18] + r[18] <= 0
 mccormick1[19]: - u[19] + r[19] <= 0
 mccormick1[20]: - u[20] + r[20] <= 0
 mccormick1[21]: - u[21] + r[21] <= 0
 mccormick1[22]: - u[22] + r[22] <= 0
 mccormick1[23]: - u[23] + r[23] <= 0
 mccormick1[24]: - u[24] + r[24] <= 0
 mccormick1[25]: - u[25] + r[25] <= 0
 mccormick1[26]: - u[26] + r[26] <= 0
 mccormick1[27]: - u[27] + r[27] <= 0
 mccormick1[28]: - u[28] + r[28] <= 0
 mccormick1[29]: - u[29] + r[29] <= 0
 mccormick1[30]: - u[30] + r[30] <= 0
 mccormick1[31]: - u[31] + r[31] <= 0
 mccormick1[32]: - u[32] + r[32] <= 0
 mccormick1[33]: - u[33] + r[33] <= 0
 mccormick1[34]: - u[34] + r[34] <= 0
 mccormick1[35]: - u[35] + r[35] <= 0
 mccormick1[36]: - u[36] + r[36] <= 0
 mccormick1[37]: - u[37] + r[37] <= 0
 mccormick1[38]: - u[38] + r[38] <= 0
 mccormick1[39]: - u[39] + r[39] <= 0
 mccormick1[40]: - u[40] + r[40] <= 0
 mccormick1[41]: - u[41] + r[41] <= 0
 mccormick1[42]: - u[42] + r[42] <= 0
 mccormick1[43]: - u[43] + r[43] <= 0
 mccormick1[44]: - u[44] + r[44] <= 0
 mccormick1[45]: - u[45] + r[45] <= 0
 mccormick1[46]: - u[46] + r[46] <= 0
 mccormick1[47]: - u[47] + r[47] <= 0
 mccormick1[48]: - u[48] + r[48] <= 0
 mccormick1[49]: - u[49] + r[49] <= 0
 mccormick1[50]: - u[50] + r[50] <= 0
 mccormick1[51]: - u[51] + r[51] <= 0
 mccormick1[52]: - u[52] + r[52] <= 0
 mccormick1[53]: - u[53] + r[53] <= 0
 mccormick1[54]: - u[54] + r[54] <= 0
 mccormick1[55]: - u[55] + r[55] <= 0
 mccormick1[56]: - u[56] + r[56] <= 0
 mccormick1[57]: - u[57] + r[57] <= 0
 mccormick1[58]: - u[58] + r[58] <= 0
 mccormick1[59]: - u[59] + r[59] <= 0
 mccormick1[60]: - u[60] + r[60] <= 0
 mccormick1[61]: - u[61] + r[61] <= 0
 mccormick1[62]: - u[62] + r[62] <= 0
 mccormick1[63]: - u[63] + r[63] <= 0
 mccormick1[64]: - u[64] + r[64] <= 0
 mccormick1[65]: - u[65] + r[65] <= 0
 mccormick1[66]: - u[66] + r[66] <= 0
 mccormick1[67]: - u[67] + r[67] <= 0
 mccormick1[68]: - u[68] + r[68] <= 0
 mccormick1[69]: - u[69] + r[69] <= 0
 mccormick1[70]: - u[70] + r[70] <= 0
 mccormick1[71]: - u[71] + r[71] <= 0
 mccormick1[72]: - u[72] + r[72] <= 0
 mccormick1[73]: - u[73] + r[73] <= 0
 mccormick1[74]: - u[74] + r[74] <= 0
 mccormick1[75]: - u[75] + r[75] <= 0
 mccormick1[76]: - u[76] + r[76] <= 0
 mccormick1[77]: - u[77] + r[77] <= 0
 mccormick1[78]: - u[78] + r[78] <= 0
 mccormick1[79]: - u[79] + r[79] <= 0
 mccormick1[80]: - u[80] + r[80] <= 0
 mccormick1[81]: - u[81] + r[81] <= 0
 mccormick1[82]: - u[82] + r[82] <= 0
 mccormick1[83]: - u[83] + r[83] <= 0
 mccormick1[84]: - u[84] + r[84] <= 0
 mccormick1[85]: - u[85] + r[85] <= 0
 mccormick1[86]: - u[86] + r[86] <= 0
 mccormick1[87]: - u[87] + r[87] <= 0
 mccormick1[88]: - u[88] + r[88] <= 0
 mccormick1[89]: - u[89] + r[89] <= 0
 mccormick1[90]: - u[90] + r[90] <= 0
 mccormick1[91]: - u[91] + r[91] <= 0
 mccormick1[92]: - u[92] + r[92] <= 0
 mccormick1[93]: - u[93] + r[93] <= 0
 mccormick1[94]: - u[94] + r[94] <= 0
 mccormick1[95]: - u[95] + r[95] <= 0
 mccormick1[96]: - u[96] + r[96] <= 0
 mccormick1[97]: - u[97] + r[97] <= 0
 mccormick1[98]: - u[98] + r[98] <= 0
 mccormick1[99]: - u[99] + r[99] <= 0
 mccormick1[100]: - u[100] + r[100] <= 0
 mccormick1[101]: - u[101] + r[101] <= 0
 mccormick1[102]: - u[102] + r[102] <= 0
 mccormick1[103]: - u[103] + r[103] <= 0
 mccormick1[104]: - u[104] + r[104] <= 0
 mccormick1[105]: - u[105] + r[105] <= 0
 mccormick1[106]: - u[106] + r[106] <= 0
 mccormick1[107]: - u[107] + r[107] <= 0
 mccormick1[108]: - u[108] + r[108] <= 0
 mccormick1[109]: - u[109] + r[109] <= 0
 mccormick1[110]: - u[110] + r[110] <= 0
 mccormick1[111]: - u[111] + r[111] <= 0
 mccormick1[112]: - u[112] + r[112] <= 0
 mccormick1[113]: - u[113] + r[113] <= 0
 mccormick1[114]: - u[114] + r[114] <= 0
 mccormick1[115]: - u[115] + r[115] <= 0
 mccormick1[116]: - u[116] + r[116] <= 0
 mccormick1[117]: - u[117] + r[117] <= 0
 mccormick1[118]: - u[118] + r[118] <= 0
 mccormick1[119]: - u[119] + r[119] <= 0
 mccormick1[120]: - u[120] + r[120] <= 0
 mccormick1[121]: - u[121] + r[121] <= 0
 mccormick1[122]: - u[122] + r[122] <= 0
 mccormick1[123]: - u[123] + r[123] <= 0
 mccormick1[124]: - u[124] + r[124] <= 0
 mccormick1[125]: - u[125] + r[125] <= 0
 mccormick1[126]: - u[126] + r[126] <= 0
 mccormick1[127]: - u[127] + r[127] <= 0
 mccormick1[128]: - u[128] + r[128] <= 0
 mccormick1[129]: - u[129] + r[129] <= 0
 mccormick2[0]: - x[0] + r[0] <= 0
 mccormick2[1]: - x[1] + r[1] <= 0
 mccormick2[2]: - x[2] + r[2] <= 0
 mccormick2[3]: - x[3] + r[3] <= 0
 mccormick2[4]: - x[4] + r[4] <= 0
 mccormick2[5]: - x[5] + r[5] <= 0
 mccormick2[6]: - x[6] + r[6] <= 0
 mccormick2[7]: - x[7] + r[7] <= 0
 mccormick2[8]: - x[8] + r[8] <= 0
 mccormick2[9]: - x[9] + r[9] <= 0
 mccormick2[10]: - x[10] + r[10] <= 0
 mccormick2[11]: - x[11] + r[11] <= 0
 mccormick2[12]: - x[12] + r[12] <= 0
 mccormick2[13]: - x[13] + r[13] <= 0
 mccormick2[14]: - x[14] + r[14] <= 0
 mccormick2[15]: - x[15] + r[15] <= 0
 mccormick2[16]: - x[16] + r[16] <= 0
 mccormick2[17]: - x[17] + r[17] <= 0
 mccormick2[18]: - x[18] + r[18] <= 0
 mccormick2[19]: - x[19] + r[19] <= 0
 mccormick2[20]: - x[20] + r[20] <= 0
 mccormick2[21]: - x[21] + r[21] <= 0
 mccormick2[22]: - x[22] + r[22] <= 0
 mccormick2[23]: - x[23] + r[23] <= 0
 mccormick2[24]: - x[24] + r[24] <= 0
 mccormick2[25]: - x[25] + r[25] <= 0
 mccormick2[26]: - x[26] + r[26] <= 0
 mccormick2[27]: - x[27] + r[27] <= 0
 mccormick2[28]: - x[28] + r[28] <= 0
 mccormick2[29]: - x[29] + r[29] <= 0
 mccormick2[30]: - x[30] + r[30] <= 0
 mccormick2[31]: - x[31] + r[31] <= 0
 mccormick2[32]: - x[32] + r[32] <= 0
 mccormick2[33]: - x[33] + r[33] <= 0
 mccormick2[34]: - x[34] + r[34] <= 0
 mccormick2[35]: - x[35] + r[35] <= 0
 mccormick2[36]: - x[36] + r[36] <= 0
 mccormick2[37]: - x[37] + r[37] <= 0
 mccormick2[38]: - x[38] + r[38] <= 0
 mccormick2[39]: - x[39] + r[39] <= 0
 mccormick2[40]: - x[40] + r[40] <= 0
 mccormick2[41]: - x[41] + r[41] <= 0
 mccormick2[42]: - x[42] + r[42] <= 0
 mccormick2[43]: - x[43] + r[43] <= 0
 mccormick2[44]: - x[44] + r[44] <= 0
 mccormick2[45]: - x[45] + r[45] <= 0
 mccormick2[46]: - x[46] + r[46] <= 0
 mccormick2[47]: - x[47] + r[47] <= 0
 mccormick2[48]: - x[48] + r[48] <= 0
 mccormick2[49]: - x[49] + r[49] <= 0
 mccormick2[50]: - x[50] + r[50] <= 0
 mccormick2[51]: - x[51] + r[51] <= 0
 mccormick2[52]: - x[52] + r[52] <= 0
 mccormick2[53]: - x[53] + r[53] <= 0
 mccormick2[54]: - x[54] + r[54] <= 0
 mccormick2[55]: - x[55] + r[55] <= 0
 mccormick2[56]: - x[56] + r[56] <= 0
 mccormick2[57]: - x[57] + r[57] <= 0
 mccormick2[58]: - x[58] + r[58] <= 0
 mccormick2[59]: - x[59] + r[59] <= 0
 mccormick2[60]: - x[60] + r[60] <= 0
 mccormick2[61]: - x[61] + r[61] <= 0
 mccormick2[62]: - x[62] + r[62] <= 0
 mccormick2[63]: - x[63] + r[63] <= 0
 mccormick2[64]: - x[64] + r[64] <= 0
 mccormick2[65]: - x[65] + r[65] <= 0
 mccormick2[66]: - x[66] + r[66] <= 0
 mccormick2[67]: - x[67] + r[67] <= 0
 mccormick2[68]: - x[68] + r[68] <= 0
 mccormick2[69]: - x[69] + r[69] <= 0
 mccormick2[70]: - x[70] + r[70] <= 0
 mccormick2[71]: - x[71] + r[71] <= 0
 mccormick2[72]: - x[72] + r[72] <= 0
 mccormick2[73]: - x[73] + r[73] <= 0
 mccormick2[74]: - x[74] + r[74] <= 0
 mccormick2[75]: - x[75] + r[75] <= 0
 mccormick2[76]: - x[76] + r[76] <= 0
 mccormick2[77]: - x[77] + r[77] <= 0
 mccormick2[78]: - x[78] + r[78] <= 0
 mccormick2[79]: - x[79] + r[79] <= 0
 mccormick2[80]: - x[80] + r[80] <= 0
 mccormick2[81]: - x[81] + r[81] <= 0
 mccormick2[82]: - x[82] + r[82] <= 0
 mccormick2[83]: - x[83] + r[83] <= 0
 mccormick2[84]: - x[84] + r[84] <= 0
 mccormick2[85]: - x[85] + r[85] <= 0
 mccormick2[86]: - x[86] + r[86] <= 0
 mccormick2[87]: - x[87] + r[87] <= 0
 mccormick2[88]: - x[88] + r[88] <= 0
 mccormick2[89]: - x[89] + r[89] <= 0
 mccormick2[90]: - x[90] + r[90] <= 0
 mccormick2[91]: - x[91] + r[91] <= 0
 mccormick2[92]: - x[92] + r[92] <= 0
 mccormick2[93]: - x[93] + r[93] <= 0
 mccormick2[94]: - x[94] + r[94] <= 0
 mccormick2[95]: - x[95] + r[95] <= 0
 mccormick2[96]: - x[96] + r[96] <= 0
 mccormick2[97]: - x[97] + r[97] <= 0
 mccormick2[98]: - x[98] + r[98] <= 0
 mccormick2[99]: - x[99] + r[99] <= 0
 mccormick2[100]: - x[100] + r[100] <= 0
 mccormick2[101]: - x[101] + r[101] <= 0
 mccormick2[102]: - x[102] + r[102] <= 0
 mccormick2[103]: - x[103] + r[103] <= 0
 mccormick2[104]: - x[104] + r[104] <= 0
 mccormick2[105]: - x[105] + r[105] <= 0
 mccormick2[106]: - x[106] + r[106] <= 0
 mccormick2[107]: - x[107] + r[107] <= 0
 mccormick2[108]: - x[108] + r[108] <= 0
 mccormick2[109]: - x[109] + r[109] <= 0
 mccormick2[110]: - x[110] + r[110] <= 0
 mccormick2[111]: - x[111] + r[111] <= 0
 mccormick2[112]: - x[112] + r[112] <= 0
 mccormick2[113]: - x[113] + r[113] <= 0
 mccormick2[114]: - x[114] + r[114] <= 0
 mccormick2[115]: - x[115] + r[115] <= 0
 mccormick2[116]: - x[116] + r[116] <= 0
 mccormick2[117]: - x[117] + r[117] <= 0
 mccormick2[118]: - x[118] + r[118] <= 0
 mccormick2[119]: - x[119] + r[119] <= 0
 mccormick2[120]: - x[120] + r[120] <= 0
 mccormick2[121]: - x[121] + r[121] <= 0
 mccormick2[122]: - x[122] + r[122] <= 0
 mccormick2[123]: - x[123] + r[123] <= 0
 mccormick2[124]: - x[124] + r[124] <= 0
 mccormick2[125]: - x[125] + r[125] <= 0
 mccormick2[126]: - x[126] + r[126] <= 0
 mccormick2[127]: - x[127] + r[127] <= 0
 mccormick2[128]: - x[128] + r[128] <= 0
 mccormick2[129]: - x[129] + r[129] <= 0
 mccormick3[0]: x[0] + u[0] - r[0] <= 1
 mccormick3[1]: x[1] + u[1] - r[1] <= 1
 mccormick3[2]: x[2] + u[2] - r[2] <= 1
 mccormick3[3]: x[3] + u[3] - r[3] <= 1
 mccormick3[4]: x[4] + u[4] - r[4] <= 1
 mccormick3[5]: x[5] + u[5] - r[5] <= 1
 mccormick3[6]: x[6] + u[6] - r[6] <= 1
 mccormick3[7]: x[7] + u[7] - r[7] <= 1
 mccormick3[8]: x[8] + u[8] - r[8] <= 1
 mccormick3[9]: x[9] + u[9] - r[9] <= 1
 mccormick3[10]: x[10] + u[10] - r[10] <= 1
 mccormick3[11]: x[11] + u[11] - r[11] <= 1
 mccormick3[12]: x[12] + u[12] - r[12] <= 1
 mccormick3[13]: x[13] + u[13] - r[13] <= 1
 mccormick3[14]: x[14] + u[14] - r[14] <= 1
 mccormick3[15]: x[15] + u[15] - r[15] <= 1
 mccormick3[16]: x[16] + u[16] - r[16] <= 1
 mccormick3[17]: x[17] + u[17] - r[17] <= 1
 mccormick3[18]: x[18] + u[18] - r[18] <= 1
 mccormick3[19]: x[19] + u[19] - r[19] <= 1
 mccormick3[20]: x[20] + u[20] - r[20] <= 1
 mccormick3[21]: x[21] + u[21] - r[21] <= 1
 mccormick3[22]: x[22] + u[22] - r[22] <= 1
 mccormick3[23]: x[23] + u[23] - r[23] <= 1
 mccormick3[24]: x[24] + u[24] - r[24] <= 1
 mccormick3[25]: x[25] + u[25] - r[25] <= 1
 mccormick3[26]: x[26] + u[26] - r[26] <= 1
 mccormick3[27]: x[27] + u[27] - r[27] <= 1
 mccormick3[28]: x[28] + u[28] - r[28] <= 1
 mccormick3[29]: x[29] + u[29] - r[29] <= 1
 mccormick3[30]: x[30] + u[30] - r[30] <= 1
 mccormick3[31]: x[31] + u[31] - r[31] <= 1
 mccormick3[32]: x[32] + u[32] - r[32] <= 1
 mccormick3[33]: x[33] + u[33] - r[33] <= 1
 mccormick3[34]: x[34] + u[34] - r[34] <= 1
 mccormick3[35]: x[35] + u[35] - r[35] <= 1
 mccormick3[36]: x[36] + u[36] - r[36] <= 1
 mccormick3[37]: x[37] + u[37] - r[37] <= 1
 mccormick3[38]: x[38] + u[38] - r[38] <= 1
 mccormick3[39]: x[39] + u[39] - r[39] <= 1
 mccormick3[40]: x[40] + u[40] - r[40] <= 1
 mccormick3[41]: x[41] + u[41] - r[41] <= 1
 mccormick3[42]: x[42] + u[42] - r[42] <= 1
 mccormick3[43]: x[43] + u[43] - r[43] <= 1
 mccormick3[44]: x[44] + u[44] - r[44] <= 1
 mccormick3[45]: x[45] + u[45] - r[45] <= 1
 mccormick3[46]: x[46] + u[46] - r[46] <= 1
 mccormick3[47]: x[47] + u[47] - r[47] <= 1
 mccormick3[48]: x[48] + u[48] - r[48] <= 1
 mccormick3[49]: x[49] + u[49] - r[49] <= 1
 mccormick3[50]: x[50] + u[50] - r[50] <= 1
 mccormick3[51]: x[51] + u[51] - r[51] <= 1
 mccormick3[52]: x[52] + u[52] - r[52] <= 1
 mccormick3[53]: x[53] + u[53] - r[53] <= 1
 mccormick3[54]: x[54] + u[54] - r[54] <= 1
 mccormick3[55]: x[55] + u[55] - r[55] <= 1
 mccormick3[56]: x[56] + u[56] - r[56] <= 1
 mccormick3[57]: x[57] + u[57] - r[57] <= 1
 mccormick3[58]: x[58] + u[58] - r[58] <= 1
 mccormick3[59]: x[59] + u[59] - r[59] <= 1
 mccormick3[60]: x[60] + u[60] - r[60] <= 1
 mccormick3[61]: x[61] + u[61] - r[61] <= 1
 mccormick3[62]: x[62] + u[62] - r[62] <= 1
 mccormick3[63]: x[63] + u[63] - r[63] <= 1
 mccormick3[64]: x[64] + u[64] - r[64] <= 1
 mccormick3[65]: x[65] + u[65] - r[65] <= 1
 mccormick3[66]: x[66] + u[66] - r[66] <= 1
 mccormick3[67]: x[67] + u[67] - r[67] <= 1
 mccormick3[68]: x[68] + u[68] - r[68] <= 1
 mccormick3[69]: x[69] + u[69] - r[69] <= 1
 mccormick3[70]: x[70] + u[70] - r[70] <= 1
 mccormick3[71]: x[71] + u[71] - r[71] <= 1
 mccormick3[72]: x[72] + u[72] - r[72] <= 1
 mccormick3[73]: x[73] + u[73] - r[73] <= 1
 mccormick3[74]: x[74] + u[74] - r[74] <= 1
 mccormick3[75]: x[75] + u[75] - r[75] <= 1
 mccormick3[76]: x[76] + u[76] - r[76] <= 1
 mccormick3[77]: x[77] + u[77] - r[77] <= 1
 mccormick3[78]: x[78] + u[78] - r[78] <= 1
 mccormick3[79]: x[79] + u[79] - r[79] <= 1
 mccormick3[80]: x[80] + u[80] - r[80] <= 1
 mccormick3[81]: x[81] + u[81] - r[81] <= 1
 mccormick3[82]: x[82] + u[82] - r[82] <= 1
 mccormick3[83]: x[83] + u[83] - r[83] <= 1
 mccormick3[84]: x[84] + u[84] - r[84] <= 1
 mccormick3[85]: x[85] + u[85] - r[85] <= 1
 mccormick3[86]: x[86] + u[86] - r[86] <= 1
 mccormick3[87]: x[87] + u[87] - r[87] <= 1
 mccormick3[88]: x[88] + u[88] - r[88] <= 1
 mccormick3[89]: x[89] + u[89] - r[89] <= 1
 mccormick3[90]: x[90] + u[90] - r[90] <= 1
 mccormick3[91]: x[91] + u[91] - r[91] <= 1
 mccormick3[92]: x[92] + u[92] - r[92] <= 1
 mccormick3[93]: x[93] + u[93] - r[93] <= 1
 mccormick3[94]: x[94] + u[94] - r[94] <= 1
 mccormick3[95]: x[95] + u[95] - r[95] <= 1
 mccormick3[96]: x[96] + u[96] - r[96] <= 1
 mccormick3[97]: x[97] + u[97] - r[97] <= 1
 mccormick3[98]: x[98] + u[98] - r[98] <= 1
 mccormick3[99]: x[99] + u[99] - r[99] <= 1
 mccormick3[100]: x[100] + u[100] - r[100] <= 1
 mccormick3[101]: x[101] + u[101] - r[101] <= 1
 mccormick3[102]: x[102] + u[102] - r[102] <= 1
 mccormick3[103]: x[103] + u[103] - r[103] <= 1
 mccormick3[104]: x[104] + u[104] - r[104] <= 1
 mccormick3[105]: x[105] + u[105] - r[105] <= 1
 mccormick3[106]: x[106] + u[106] - r[106] <= 1
 mccormick3[107]: x[107] + u[107] - r[107] <= 1
 mccormick3[108]: x[108] + u[108] - r[108] <= 1
 mccormick3[109]: x[109] + u[109] - r[109] <= 1
 mccormick3[110]: x[110] + u[110] - r[110] <= 1
 mccormick3[111]: x[111] + u[111] - r[111] <= 1
 mccormick3[112]: x[112] + u[112] - r[112] <= 1
 mccormick3[113]: x[113] + u[113] - r[113] <= 1
 mccormick3[114]: x[114] + u[114] - r[114] <= 1
 mccormick3[115]: x[115] + u[115] - r[115] <= 1
 mccormick3[116]: x[116] + u[116] - r[116] <= 1
 mccormick3[117]: x[117] + u[117] - r[117] <= 1
 mccormick3[118]: x[118] + u[118] - r[118] <= 1
 mccormick3[119]: x[119] + u[119] - r[119] <= 1
 mccormick3[120]: x[120] + u[120] - r[120] <= 1
 mccormick3[121]: x[121] + u[121] - r[121] <= 1
 mccormick3[122]: x[122] + u[122] - r[122] <= 1
 mccormick3[123]: x[123] + u[123] - r[123] <= 1
 mccormick3[124]: x[124] + u[124] - r[124] <= 1
 mccormick3[125]: x[125] + u[125] - r[125] <= 1
 mccormick3[126]: x[126] + u[126] - r[126] <= 1
 mccormick3[127]: x[127] + u[127] - r[127] <= 1
 mccormick3[128]: x[128] + u[128] - r[128] <= 1
 mccormick3[129]: x[129] + u[129] - r[129] <= 1
Bounds
Binaries
 x[0] x[1] x[2] x[3] x[4] x[5] x[6] x[7] x[8] x[9] x[10] x[11] x[12] x[13]
 x[14] x[15] x[16] x[17] x[18] x[19] x[20] x[21] x[22] x[23] x[24] x[25]
 x[26] x[27] x[28] x[29] x[30] x[31] x[32] x[33] x[34] x[35] x[36] x[37]
 x[38] x[39] x[40] x[41] x[42] x[43] x[44] x[45] x[46] x[47] x[48] x[49]
 x[50] x[51] x[52] x[53] x[54] x[55] x[56] x[57] x[58] x[59] x[60] x[61]
 x[62] x[63] x[64] x[65] x[66] x[67] x[68] x[69] x[70] x[71] x[72] x[73]
 x[74] x[75] x[76] x[77] x[78] x[79] x[80] x[81] x[82] x[83] x[84] x[85]
 x[86] x[87] x[88] x[89] x[90] x[91] x[92] x[93] x[94] x[95] x[96] x[97]
 x[98] x[99] x[100] x[101] x[102] x[103] x[104] x[105] x[106] x[107] x[108]
 x[109] x[110] x[111] x[112] x[113] x[114] x[115] x[116] x[117] x[118]
 x[119] x[120] x[121] x[122] x[123] x[124] x[125] x[126] x[127] x[128]
 x[129] u[0] u[1] u[2] u[3] u[4] u[5] u[6] u[7] u[8] u[9] u[10] u[11] u[12]
 u[13] u[14] u[15] u[16] u[17] u[18] u[19] u[20] u[21] u[22] u[23] u[24]
 u[25] u[26] u[27] u[28] u[29] u[30] u[31] u[32] u[33] u[34] u[35] u[36]
 u[37] u[38] u[39] u[40] u[41] u[42] u[43] u[44] u[45] u[46] u[47] u[48]
 u[49] u[50] u[51] u[52] u[53] u[54] u[55] u[56] u[57] u[58] u[59] u[60]
 u[61] u[62] u[63] u[64] u[65] u[66] u[67] u[68] u[69] u[70] u[71] u[72]
 u[73] u[74] u[75] u[76] u[77] u[78] u[79] u[80] u[81] u[82] u[83] u[84]
 u[85] u[86] u[87] u[88] u[89] u[90] u[91] u[92] u[93] u[94] u[95] u[96]
 u[97] u[98] u[99] u[100] u[101] u[102] u[103] u[104] u[105] u[106] u[107]
 u[108] u[109] u[110] u[111] u[112] u[113] u[114] u[115] u[116] u[117]
 u[118] u[119] u[120] u[121] u[122] u[123] u[124] u[125] u[126] u[127]
 u[128] u[129] r[0] r[1] r[2] r[3] r[4] r[5] r[6] r[7] r[8] r[9] r[10]
 r[11] r[12] r[13] r[14] r[15] r[16] r[17] r[18] r[19] r[20] r[21] r[22]
 r[23] r[24] r[25] r[26] r[27] r[28] r[29] r[30] r[31] r[32] r[33] r[34]
 r[35] r[36] r[37] r[38] r[39] r[40] r[41] r[42] r[43] r[44] r[45] r[46]
 r[47] r[48] r[49] r[50] r[51] r[52] r[53] r[54] r[55] r[56] r[57] r[58]
 r[59] r[60] r[61] r[62] r[63] r[64] r[65] r[66] r[67] r[68] r[69] r[70]
 r[71] r[72] r[73] r[74] r[75] r[76] r[77] r[78] r[79] r[80] r[81] r[82]
 r[83] r[84] r[85] r[86] r[87] r[88] r[89] r[90] r[91] r[92] r[93] r[94]
 r[95] r[96] r[97] r[98] r[99] r[100] r[101] r[102] r[103] r[104] r[105]
 r[106] r[107] r[108] r[109] r[110] r[111] r[112] r[113] r[114] r[115]
 r[116] r[117] r[118] r[119] r[120] r[121] r[122] r[123] r[124] r[125]
 r[126] r[127] r[128] r[129]
End
