\ Model knapsack_120_1
\ LP format - for model browsing. Use MPS format to capture full model detail.
\ Signature: 0x89f048c0c920bd9
Minimize
  - 0.88 x[0] - 0.44 x[1] - 0.74 x[2] - 0.78 x[3] - 0.11 x[4] - 0.19 x[5]
   - 0.87 x[6] - 0.41 x[7] - 0.64 x[8] - 0.04 x[9] - 0.05 x[10]
   - 0.41 x[11] - 0.21 x[12] - 0.88 x[13] - 0.61 x[14] - 0.78 x[15]
   - 0.8 x[16] - 0.84 x[17] - 0.24 x[18] - 0.35 x[19] - 0.07 x[20]
   - 0.85 x[21] - 0.02 x[22] - 0.46 x[23] - 0.59 x[24] - 0.44 x[25]
   - 0.54 x[26] - 0.25 x[27] - x[28] - 0.82 x[29] - 0.83 x[30] - 0.66 x[31]
   - 0.14 x[32] - 0.21 x[33] - 0.57 x[34] - 0.15 x[35] - 0.79 x[36]
   - 0.77 x[37] - 0.08 x[38] - 0.85 x[39] - 0.3 x[40] - 0.47 x[41]
   - 0.79 x[42] - 0.81 x[43] - 0.32 x[44] - 0.73 x[45] - 0.78 x[46]
   - 0.74 x[47] - 0.38 x[48] - 0.19 x[49] - 0.21 x[50] - 0.48 x[51]
   - 0.89 x[52] - 0.15 x[53] - 0.46 x[54] - 0.16 x[55] - 0.72 x[56]
   - 0.82 x[57] - 0.18 x[58] - 0.69 x[59] - 0.34 x[60] - 0.44 x[61]
   - 0.99 x[62] - 0.95 x[63] - 0.4 x[64] - 0.39 x[65] - 0.43 x[66]
   - 0.51 x[67] - 0.62 x[68] - 0.95 x[69] - 0.55 x[70] - 0.65 x[71]
   - 0.03 x[72] - 0.23 x[73] - 0.16 x[74] - 0.08 x[75] - 0.04 x[76]
   - 0.95 x[77] - 0.66 x[78] - 0.85 x[79] - 0.01 x[80] - x[81] - 0.27 x[82]
   - 0.92 x[83] - 0.75 x[84] - 0.7 x[85] - 0.72 x[86] - 0.01 x[87]
   - 0.18 x[88] - 0.16 x[89] - 0.72 x[90] - 0.79 x[91] - 0.15 x[92]
   - 0.46 x[93] - 0.42 x[94] - 0.96 x[95] - 0.91 x[96] - 0.98 x[97]
   - 0.1 x[98] - 0.58 x[99] - 0.34 x[100] - 0.31 x[101] - 0.44 x[102]
   - 0.83 x[103] - 0.65 x[104] - 0.25 x[105] - 0.24 x[106] - 0.26 x[107]
   - 0.64 x[108] - 0.86 x[109] - 0.63 x[110] - 0.04 x[111] - 0.43 x[112]
   - 0.13 x[113] - 0.2 x[114] - 0.59 x[115] - 0.33 x[116] - 0.55 x[117]
   - 0.36 x[118] - 0.17 x[119]
Subject To
 primal_upper: 43 x[0] + 52 x[1] + 10 x[2] + 79 x[3] + 64 x[4] + 57 x[5]
   + 53 x[6] + 91 x[7] + 9 x[8] + 10 x[9] + 99 x[10] + 47 x[11] + 76 x[12]
   + 68 x[13] + 44 x[14] + 40 x[15] + 77 x[16] + 88 x[17] + 41 x[18]
   + 46 x[19] + 89 x[20] + 47 x[21] + 96 x[22] + 78 x[23] + 72 x[24]
   + 60 x[25] + 6 x[26] + 11 x[27] + 89 x[28] + 11 x[29] + 61 x[30]
   + 51 x[31] + 59 x[32] + 5 x[33] + 80 x[34] + 29 x[35] + 24 x[36]
   + 100 x[37] + 100 x[38] + 42 x[39] + 99 x[40] + 69 x[41] + 6 x[42]
   + 49 x[43] + 63 x[44] + 34 x[45] + 65 x[46] + 49 x[47] + 67 x[48]
   + 48 x[49] + 74 x[50] + 80 x[51] + 93 x[52] + 100 x[53] + 24 x[54]
   + 71 x[55] + 77 x[56] + 50 x[57] + 60 x[58] + 74 x[59] + 24 x[60]
   + 86 x[61] + 87 x[62] + 98 x[63] + 47 x[64] + 72 x[65] + 32 x[66]
   + 82 x[67] + 92 x[68] + 37 x[69] + 53 x[70] + x[71] + 46 x[72]
   + 95 x[73] + 27 x[74] + 44 x[75] + 58 x[76] + 91 x[77] + 8 x[78]
   + 98 x[79] + 69 x[80] + 21 x[81] + 2 x[82] + 53 x[83] + 57 x[84]
   + 9 x[85] + 75 x[86] + 40 x[87] + 22 x[88] + 23 x[89] + 4 x[90]
   + 20 x[91] + 96 x[92] + 67 x[93] + 8 x[94] + 13 x[95] + 29 x[96]
   + 76 x[97] + 52 x[98] + 96 x[99] + 49 x[100] + 92 x[101] + 70 x[102]
   + 72 x[103] + 69 x[104] + 62 x[105] + 91 x[106] + 30 x[107] + 86 x[108]
   + 85 x[109] + 54 x[110] + 83 x[111] + 73 x[112] + 41 x[113] + 77 x[114]
   + 78 x[115] + 31 x[116] + 37 x[117] + 25 x[118] + 24 x[119] + 4.3 r[0]
   + 5.2 r[1] + r[2] + 7.9 r[3] + 6.4 r[4] + 5.7 r[5] + 5.3 r[6] + 9.1 r[7]
   + 0.9 r[8] + r[9] + 9.9 r[10] + 4.7 r[11] + 7.6 r[12] + 6.8 r[13]
   + 4.4 r[14] + 4 r[15] + 7.7 r[16] + 8.8 r[17] + 4.1 r[18] + 4.6 r[19]
   + 8.9 r[20] + 4.7 r[21] + 9.6 r[22] + 7.8 r[23] + 7.2 r[24] + 6 r[25]
   + 0.6 r[26] + 1.1 r[27] + 8.9 r[28] + 1.1 r[29] + 6.1 r[30] + 5.1 r[31]
   + 5.9 r[32] + 0.5 r[33] + 8 r[34] + 2.9 r[35] + 2.4 r[36] + 10 r[37]
   + 10 r[38] + 4.2 r[39] + 9.9 r[40] + 6.9 r[41] + 0.6 r[42] + 4.9 r[43]
   + 6.3 r[44] + 3.4 r[45] + 6.5 r[46] + 4.9 r[47] + 6.7 r[48] + 4.8 r[49]
   + 7.4 r[50] + 8 r[51] + 9.3 r[52] + 10 r[53] + 2.4 r[54] + 7.1 r[55]
   + 7.7 r[56] + 5 r[57] + 6 r[58] + 7.4 r[59] + 2.4 r[60] + 8.6 r[61]
   + 8.7 r[62] + 9.8 r[63] + 4.7 r[64] + 7.2 r[65] + 3.2 r[66] + 8.2 r[67]
   + 9.2 r[68] + 3.7 r[69] + 5.3 r[70] + 0.1 r[71] + 4.6 r[72] + 9.5 r[73]
   + 2.7 r[74] + 4.4 r[75] + 5.8 r[76] + 9.1 r[77] + 0.8 r[78] + 9.8 r[79]
   + 6.9 r[80] + 2.1 r[81] + 0.2 r[82] + 5.3 r[83] + 5.7 r[84] + 0.9 r[85]
   + 7.5 r[86] + 4 r[87] + 2.2 r[88] + 2.3 r[89] + 0.4 r[90] + 2 r[91]
   + 9.6 r[92] + 6.7 r[93] + 0.8 r[94] + 1.3 r[95] + 2.9 r[96] + 7.6 r[97]
   + 5.2 r[98] + 9.6 r[99] + 4.9 r[100] + 9.2 r[101] + 7 r[102]
   + 7.2 r[103] + 6.9 r[104] + 6.2 r[105] + 9.1 r[106] + 3 r[107]
   + 8.6 r[108] + 8.5 r[109] + 5.4 r[110] + 8.3 r[111] + 7.3 r[112]
   + 4.1 r[113] + 7.7 r[114] + 7.8 r[115] + 3.1 r[116] + 3.7 r[117]
   + 2.5 r[118] + 2.4 r[119] <= 608
 primal_lower: - 1.14 x[0] - 1.93 x[1] - 1.83 x[2] - 1.93 x[3] - 2.99 x[4]
   - 3.29 x[5] - 3.55 x[6] - 0.97 x[7] - 0.55 x[8] - 4 x[9] - 3.51 x[10]
   - 3.31 x[11] - 0.5 x[12] - 4.12 x[13] - 0.39 x[14] - 3.9 x[15]
   - 1.98 x[16] - 0.84 x[17] - 0.23 x[18] - 2.07 x[19] - 3.17 x[20]
   - 2.61 x[21] - 4.05 x[22] - 0.31 x[23] - 1.75 x[24] - 1.69 x[25]
   - 3.5 x[26] - 2.98 x[27] - 0.56 x[28] - 0.14 x[29] - 1.93 x[30]
   - 1.22 x[31] - 0.35 x[32] - 1.05 x[33] - 4.07 x[34] - 1.55 x[35]
   - 0.63 x[36] - 0.51 x[37] - 0.72 x[38] - 3.14 x[39] - 1.08 x[40]
   - 3.14 x[41] - 0.09 x[42] - 2.24 x[43] - 3.45 x[44] - 2.89 x[45]
   - 0.95 x[46] - 0.71 x[47] - 3.73 x[48] - 1.32 x[49] - 2.42 x[50]
   - 2.08 x[51] - 1.1 x[52] - 0.6 x[53] - 3.69 x[54] - 0.85 x[55]
   - 1.73 x[56] - 1.95 x[57] - 3.02 x[58] - 3.55 x[59] - 1.36 x[60]
   - 1.61 x[61] - 3.26 x[62] - 2.32 x[63] - 1.19 x[64] - 3.77 x[65]
   - 2.53 x[66] - 3.2 x[67] - 2.67 x[68] - 2.87 x[69] - 3.25 x[70]
   - 2.04 x[71] - 3.82 x[72] - 0.48 x[73] - 2.64 x[74] - 1.77 x[75]
   - 2.24 x[76] - 2.61 x[77] - 0.98 x[78] - 2.31 x[79] - 3.28 x[80]
   - 3.05 x[81] - 2 x[82] - 0.82 x[83] - 2.06 x[84] - 1.08 x[85]
   - 1.32 x[86] - 1.57 x[87] - 0.93 x[88] - 3.51 x[89] - 1.72 x[90]
   - 3.91 x[91] - 0.22 x[92] - 2.77 x[93] - 0.53 x[94] - 2.42 x[95]
   - 2.52 x[96] - 3 x[97] - 0.18 x[98] - 1.79 x[99] - 1.28 x[100]
   - 0.84 x[101] - 4.02 x[102] - 2.88 x[103] - 3.3 x[104] - 0.84 x[105]
   - 3.73 x[106] - 1.86 x[107] - 1.57 x[108] - 2.83 x[109] - 3.85 x[110]
   - 2.87 x[111] - 2.4 x[112] - 3.15 x[113] - 3.62 x[114] - 2.24 x[115]
   - 0.93 x[116] - 1.54 x[117] - 4.22 x[118] - 2.23 x[119] + 57 u[0]
   + 10 u[1] + 96 u[2] + 21 u[3] + 50 u[4] + 99 u[5] + 91 u[6] + 37 u[7]
   + 67 u[8] + 88 u[9] + 21 u[10] + 33 u[11] + 10 u[12] + 66 u[13]
   + 18 u[14] + 2 u[15] + 3 u[16] + 38 u[17] + 3 u[18] + 56 u[19]
   + 27 u[20] + 41 u[21] + 46 u[22] + 44 u[23] + 14 u[24] + 14 u[25]
   + 24 u[26] + 9 u[27] + 35 u[28] + 37 u[29] + 83 u[30] + 9 u[31]
   + 29 u[32] + 35 u[33] + 42 u[34] + 47 u[35] + 50 u[36] + 10 u[37]
   + 10 u[38] + 36 u[39] + 29 u[40] + 75 u[41] + 48 u[42] + 87 u[43]
   + 57 u[44] + 44 u[45] + 71 u[46] + 79 u[47] + 29 u[48] + 30 u[49]
   + 40 u[50] + 74 u[51] + 43 u[52] + 82 u[53] + 26 u[54] + 97 u[55]
   + 23 u[56] + 52 u[57] + 46 u[58] + 96 u[59] + 2 u[60] + 36 u[61]
   + 45 u[62] + 88 u[63] + 93 u[64] + 86 u[65] + 50 u[66] + 56 u[67]
   + 58 u[68] + 39 u[69] + 99 u[70] + 63 u[71] + 84 u[72] + 57 u[73]
   + 97 u[74] + 14 u[75] + 32 u[76] + 49 u[77] + 78 u[78] + 96 u[79]
   + 55 u[80] + 99 u[81] + 20 u[82] + 11 u[83] + 67 u[84] + 55 u[85]
   + 41 u[86] + 10 u[87] + 60 u[88] + 25 u[89] + 38 u[90] + 18 u[91]
   + 22 u[92] + 9 u[93] + 34 u[94] + 47 u[95] + 63 u[96] + 74 u[97]
   + 90 u[98] + 62 u[99] + 35 u[100] + 98 u[101] + 16 u[102] + 54 u[103]
   + 3 u[104] + 4 u[105] + 21 u[106] + 64 u[107] + 52 u[108] + 63 u[109]
   + 56 u[110] + 57 u[111] + 59 u[112] + 39 u[113] + 99 u[114] + 100 u[115]
   + 69 u[116] + 23 u[117] + 3 u[118] + 34 u[119] <= 518
 mccormick1[0]: - u[0] + r[0] <= 0
 mccormick1[1]: - u[1] + r[1] <= 0
 mccormick1[2]: - u[2] + r[2] <= 0
 mccormick1[3]: - u[3] + r[3] <= 0
 mccormick1[4]: - u[4] + r[4] <= 0
 mccormick1[5]: - u[5] + r[5] <= 0
 mccormick1[6]: - u[6] + r[6] <= 0
 mccormick1[7]: - u[7] + r[7] <= 0
 mccormick1[8]: - u[8] + r[8] <= 0
 mccormick1[9]: - u[9] + r[9] <= 0
 mccormick1[10]: - u[10] + r[10] <= 0
 mccormick1[11]: - u[11] + r[11] <= 0
 mccormick1[12]: - u[12] + r[12] <= 0
 mccormick1[13]: - u[13] + r[13] <= 0
 mccormick1[14]: - u[14] + r[14] <= 0
 mccormick1[15]: - u[15] + r[15] <= 0
 mccormick1[16]: - u[16] + r[16] <= 0
 mccormick1[17]: - u[17] + r[17] <= 0
 mccormick1[18]: - u[18] + r[18] <= 0
 mccormick1[19]: - u[19] + r[19] <= 0
 mccormick1[20]: - u[20] + r[20] <= 0
 mccormick1[21]: - u[21] + r[21] <= 0
 mccormick1[22]: - u[22] + r[22] <= 0
 mccormick1[23]: - u[23] + r[23] <= 0
 mccormick1[24]: - u[24] + r[24] <= 0
 mccormick1[25]: - u[25] + r[25] <= 0
 mccormick1[26]: - u[26] + r[26] <= 0
 mccormick1[27]: - u[27] + r[27] <= 0
 mccormick1[28]: - u[28] + r[28] <= 0
 mccormick1[29]: - u[29] + r[29] <= 0
 mccormick1[30]: - u[30] + r[30] <= 0
 mccormick1[31]: - u[31] + r[31] <= 0
 mccormick1[32]: - u[32] + r[32] <= 0
 mccormick1[33]: - u[33] + r[33] <= 0
 mccormick1[34]: - u[34] + r[34] <= 0
 mccormick1[35]: - u[35] + r[35] <= 0
 mccormick1[36]: - u[36] + r[36] <= 0
 mccormick1[37]: - u[37] + r[37] <= 0
 mccormick1[38]: - u[38] + r[38] <= 0
 mccormick1[39]: - u[39] + r[39] <= 0
 mccormick1[40]: - u[40] + r[40] <= 0
 mccormick1[41]: - u[41] + r[41] <= 0
 mccormick1[42]: - u[42] + r[42] <= 0
 mccormick1[43]: - u[43] + r[43] <= 0
 mccormick1[44]: - u[44] + r[44] <= 0
 mccormick1[45]: - u[45] + r[45] <= 0
 mccormick1[46]: - u[46] + r[46] <= 0
 mccormick1[47]: - u[47] + r[47] <= 0
 mccormick1[48]: - u[48] + r[48] <= 0
 mccormick1[49]: - u[49] + r[49] <= 0
 mccormick1[50]: - u[50] + r[50] <= 0
 mccormick1[51]: - u[51] + r[51] <= 0
 mccormick1[52]: - u[52] + r[52] <= 0
 mccormick1[53]: - u[53] + r[53] <= 0
 mccormick1[54]: - u[54] + r[54] <= 0
 mccormick1[55]: - u[55] + r[55] <= 0
 mccormick1[56]: - u[56] + r[56] <= 0
 mccormick1[57]: - u[57] + r[57] <= 0
 mccormick1[58]: - u[58] + r[58] <= 0
 mccormick1[59]: - u[59] + r[59] <= 0
 mccormick1[60]: - u[60] + r[60] <= 0
 mccormick1[61]: - u[61] + r[61] <= 0
 mccormick1[62]: - u[62] + r[62] <= 0
 mccormick1[63]: - u[63] + r[63] <= 0
 mccormick1[64]: - u[64] + r[64] <= 0
 mccormick1[65]: - u[65] + r[65] <= 0
 mccormick1[66]: - u[66] + r[66] <= 0
 mccormick1[67]: - u[67] + r[67] <= 0
 mccormick1[68]: - u[68] + r[68] <= 0
 mccormick1[69]: - u[69] + r[69] <= 0
 mccormick1[70]: - u[70] + r[70] <= 0
 mccormick1[71]: - u[71] + r[71] <= 0
 mccormick1[72]: - u[72] + r[72] <= 0
 mccormick1[73]: - u[73] + r[73] <= 0
 mccormick1[74]: - u[74] + r[74] <= 0
 mccormick1[75]: - u[75] + r[75] <= 0
 mccormick1[76]: - u[76] + r[76] <= 0
 mccormick1[77]: - u[77] + r[77] <= 0
 mccormick1[78]: - u[78] + r[78] <= 0
 mccormick1[79]: - u[79] + r[79] <= 0
 mccormick1[80]: - u[80] + r[80] <= 0
 mccormick1[81]: - u[81] + r[81] <= 0
 mccormick1[82]: - u[82] + r[82] <= 0
 mccormick1[83]: - u[83] + r[83] <= 0
 mccormick1[84]: - u[84] + r[84] <= 0
 mccormick1[85]: - u[85] + r[85] <= 0
 mccormick1[86]: - u[86] + r[86] <= 0
 mccormick1[87]: - u[87] + r[87] <= 0
 mccormick1[88]: - u[88] + r[88] <= 0
 mccormick1[89]: - u[89] + r[89] <= 0
 mccormick1[90]: - u[90] + r[90] <= 0
 mccormick1[91]: - u[91] + r[91] <= 0
 mccormick1[92]: - u[92] + r[92] <= 0
 mccormick1[93]: - u[93] + r[93] <= 0
 mccormick1[94]: - u[94] + r[94] <= 0
 mccormick1[95]: - u[95] + r[95] <= 0
 mccormick1[96]: - u[96] + r[96] <= 0
 mccormick1[97]: - u[97] + r[97] <= 0
 mccormick1[98]: - u[98] + r[98] <= 0
 mccormick1[99]: - u[99] + r[99] <= 0
 mccormick1[100]: - u[100] + r[100] <= 0
 mccormick1[101]: - u[101] + r[101] <= 0
 mccormick1[102]: - u[102] + r[102] <= 0
 mccormick1[103]: - u[103] + r[103] <= 0
 mccormick1[104]: - u[104] + r[104] <= 0
 mccormick1[105]: - u[105] + r[105] <= 0
 mccormick1[106]: - u[106] + r[106] <= 0
 mccormick1[107]: - u[107] + r[107] <= 0
 mccormick1[108]: - u[108] + r[108] <= 0
 mccormick1[109]: - u[109] + r[109] <= 0
 mccormick1[110]: - u[110] + r[110] <= 0
 mccormick1[111]: - u[111] + r[111] <= 0
 mccormick1[112]: - u[112] + r[112] <= 0
 mccormick1[113]: - u[113] + r[113] <= 0
 mccormick1[114]: - u[114] + r[114] <= 0
 mccormick1[115]: - u[115] + r[115] <= 0
 mccormick1[116]: - u[116] + r[116] <= 0
 mccormick1[117]: - u[117] + r[117] <= 0
 mccormick1[118]: - u[118] + r[118] <= 0
 mccormick1[119]: - u[119] + r[119] <= 0
 mccormick2[0]: - x[0] + r[0] <= 0
 mccormick2[1]: - x[1] + r[1] <= 0
 mccormick2[2]: - x[2] + r[2] <= 0
 mccormick2[3]: - x[3] + r[3] <= 0
 mccormick2[4]: - x[4] + r[4] <= 0
 mccormick2[5]: - x[5] + r[5] <= 0
 mccormick2[6]: - x[6] + r[6] <= 0
 mccormick2[7]: - x[7] + r[7] <= 0
 mccormick2[8]: - x[8] + r[8] <= 0
 mccormick2[9]: - x[9] + r[9] <= 0
 mccormick2[10]: - x[10] + r[10] <= 0
 mccormick2[11]: - x[11] + r[11] <= 0
 mccormick2[12]: - x[12] + r[12] <= 0
 mccormick2[13]: - x[13] + r[13] <= 0
 mccormick2[14]: - x[14] + r[14] <= 0
 mccormick2[15]: - x[15] + r[15] <= 0
 mccormick2[16]: - x[16] + r[16] <= 0
 mccormick2[17]: - x[17] + r[17] <= 0
 mccormick2[18]: - x[18] + r[18] <= 0
 mccormick2[19]: - x[19] + r[19] <= 0
 mccormick2[20]: - x[20] + r[20] <= 0
 mccormick2[21]: - x[21] + r[21] <= 0
 mccormick2[22]: - x[22] + r[22] <= 0
 mccormick2[23]: - x[23] + r[23] <= 0
 mccormick2[24]: - x[24] + r[24] <= 0
 mccormick2[25]: - x[25] + r[25] <= 0
 mccormick2[26]: - x[26] + r[26] <= 0
 mccormick2[27]: - x[27] + r[27] <= 0
 mccormick2[28]: - x[28] + r[28] <= 0
 mccormick2[29]: - x[29] + r[29] <= 0
 mccormick2[30]: - x[30] + r[30] <= 0
 mccormick2[31]: - x[31] + r[31] <= 0
 mccormick2[32]: - x[32] + r[32] <= 0
 mccormick2[33]: - x[33] + r[33] <= 0
 mccormick2[34]: - x[34] + r[34] <= 0
 mccormick2[35]: - x[35] + r[35] <= 0
 mccormick2[36]: - x[36] + r[36] <= 0
 mccormick2[37]: - x[37] + r[37] <= 0
 mccormick2[38]: - x[38] + r[38] <= 0
 mccormick2[39]: - x[39] + r[39] <= 0
 mccormick2[40]: - x[40] + r[40] <= 0
 mccormick2[41]: - x[41] + r[41] <= 0
 mccormick2[42]: - x[42] + r[42] <= 0
 mccormick2[43]: - x[43] + r[43] <= 0
 mccormick2[44]: - x[44] + r[44] <= 0
 mccormick2[45]: - x[45] + r[45] <= 0
 mccormick2[46]: - x[46] + r[46] <= 0
 mccormick2[47]: - x[47] + r[47] <= 0
 mccormick2[48]: - x[48] + r[48] <= 0
 mccormick2[49]: - x[49] + r[49] <= 0
 mccormick2[50]: - x[50] + r[50] <= 0
 mccormick2[51]: - x[51] + r[51] <= 0
 mccormick2[52]: - x[52] + r[52] <= 0
 mccormick2[53]: - x[53] + r[53] <= 0
 mccormick2[54]: - x[54] + r[54] <= 0
 mccormick2[55]: - x[55] + r[55] <= 0
 mccormick2[56]: - x[56] + r[56] <= 0
 mccormick2[57]: - x[57] + r[57] <= 0
 mccormick2[58]: - x[58] + r[58] <= 0
 mccormick2[59]: - x[59] + r[59] <= 0
 mccormick2[60]: - x[60] + r[60] <= 0
 mccormick2[61]: - x[61] + r[61] <= 0
 mccormick2[62]: - x[62] + r[62] <= 0
 mccormick2[63]: - x[63] + r[63] <= 0
 mccormick2[64]: - x[64] + r[64] <= 0
 mccormick2[65]: - x[65] + r[65] <= 0
 mccormick2[66]: - x[66] + r[66] <= 0
 mccormick2[67]: - x[67] + r[67] <= 0
 mccormick2[68]: - x[68] + r[68] <= 0
 mccormick2[69]: - x[69] + r[69] <= 0
 mccormick2[70]: - x[70] + r[70] <= 0
 mccormick2[71]: - x[71] + r[71] <= 0
 mccormick2[72]: - x[72] + r[72] <= 0
 mccormick2[73]: - x[73] + r[73] <= 0
 mccormick2[74]: - x[74] + r[74] <= 0
 mccormick2[75]: - x[75] + r[75] <= 0
 mccormick2[76]: - x[76] + r[76] <= 0
 mccormick2[77]: - x[77] + r[77] <= 0
 mccormick2[78]: - x[78] + r[78] <= 0
 mccormick2[79]: - x[79] + r[79] <= 0
 mccormick2[80]: - x[80] + r[80] <= 0
 mccormick2[81]: - x[81] + r[81] <= 0
 mccormick2[82]: - x[82] + r[82] <= 0
 mccormick2[83]: - x[83] + r[83] <= 0
 mccormick2[84]: - x[84] + r[84] <= 0
 mccormick2[85]: - x[85] + r[85] <= 0
 mccormick2[86]: - x[86] + r[86] <= 0
 mccormick2[87]: - x[87] + r[87] <= 0
 mccormick2[88]: - x[88] + r[88] <= 0
 mccormick2[89]: - x[89] + r[89] <= 0
 mccormick2[90]: - x[90] + r[90] <= 0
 mccormick2[91]: - x[91] + r[91] <= 0
 mccormick2[92]: - x[92] + r[92] <= 0
 mccormick2[93]: - x[93] + r[93] <= 0
 mccormick2[94]: - x[94] + r[94] <= 0
 mccormick2[95]: - x[95] + r[95] <= 0
 mccormick2[96]: - x[96] + r[96] <= 0
 mccormick2[97]: - x[97] + r[97] <= 0
 mccormick2[98]: - x[98] + r[98] <= 0
 mccormick2[99]: - x[99] + r[99] <= 0
 mccormick2[100]: - x[100] + r[100] <= 0
 mccormick2[101]: - x[101] + r[101] <= 0
 mccormick2[102]: - x[102] + r[102] <= 0
 mccormick2[103]: - x[103] + r[103] <= 0
 mccormick2[104]: - x[104] + r[104] <= 0
 mccormick2[105]: - x[105] + r[105] <= 0
 mccormick2[106]: - x[106] + r[106] <= 0
 mccormick2[107]: - x[107] + r[107] <= 0
 mccormick2[108]: - x[108] + r[108] <= 0
 mccormick2[109]: - x[109] + r[109] <= 0
 mccormick2[110]: - x[110] + r[110] <= 0
 mccormick2[111]: - x[111] + r[111] <= 0
 mccormick2[112]: - x[112] + r[112] <= 0
 mccormick2[113]: - x[113] + r[113] <= 0
 mccormick2[114]: - x[114] + r[114] <= 0
 mccormick2[115]: - x[115] + r[115] <= 0
 mccormick2[116]: - x[116] + r[116] <= 0
 mccormick2[117]: - x[117] + r[117] <= 0
 mccormick2[118]: - x[118] + r[118] <= 0
 mccormick2[119]: - x[119] + r[119] <= 0
 mccormick3[0]: x[0] + u[0] - r[0] <= 1
 mccormick3[1]: x[1] + u[1] - r[1] <= 1
 mccormick3[2]: x[2] + u[2] - r[2] <= 1
 mccormick3[3]: x[3] + u[3] - r[3] <= 1
 mccormick3[4]: x[4] + u[4] - r[4] <= 1
 mccormick3[5]: x[5] + u[5] - r[5] <= 1
 mccormick3[6]: x[6] + u[6] - r[6] <= 1
 mccormick3[7]: x[7] + u[7] - r[7] <= 1
 mccormick3[8]: x[8] + u[8] - r[8] <= 1
 mccormick3[9]: x[9] + u[9] - r[9] <= 1
 mccormick3[10]: x[10] + u[10] - r[10] <= 1
 mccormick3[11]: x[11] + u[11] - r[11] <= 1
 mccormick3[12]: x[12] + u[12] - r[12] <= 1
 mccormick3[13]: x[13] + u[13] - r[13] <= 1
 mccormick3[14]: x[14] + u[14] - r[14] <= 1
 mccormick3[15]: x[15] + u[15] - r[15] <= 1
 mccormick3[16]: x[16] + u[16] - r[16] <= 1
 mccormick3[17]: x[17] + u[17] - r[17] <= 1
 mccormick3[18]: x[18] + u[18] - r[18] <= 1
 mccormick3[19]: x[19] + u[19] - r[19] <= 1
 mccormick3[20]: x[20] + u[20] - r[20] <= 1
 mccormick3[21]: x[21] + u[21] - r[21] <= 1
 mccormick3[22]: x[22] + u[22] - r[22] <= 1
 mccormick3[23]: x[23] + u[23] - r[23] <= 1
 mccormick3[24]: x[24] + u[24] - r[24] <= 1
 mccormick3[25]: x[25] + u[25] - r[25] <= 1
 mccormick3[26]: x[26] + u[26] - r[26] <= 1
 mccormick3[27]: x[27] + u[27] - r[27] <= 1
 mccormick3[28]: x[28] + u[28] - r[28] <= 1
 mccormick3[29]: x[29] + u[29] - r[29] <= 1
 mccormick3[30]: x[30] + u[30] - r[30] <= 1
 mccormick3[31]: x[31] + u[31] - r[31] <= 1
 mccormick3[32]: x[32] + u[32] - r[32] <= 1
 mccormick3[33]: x[33] + u[33] - r[33] <= 1
 mccormick3[34]: x[34] + u[34] - r[34] <= 1
 mccormick3[35]: x[35] + u[35] - r[35] <= 1
 mccormick3[36]: x[36] + u[36] - r[36] <= 1
 mccormick3[37]: x[37] + u[37] - r[37] <= 1
 mccormick3[38]: x[38] + u[38] - r[38] <= 1
 mccormick3[39]: x[39] + u[39] - r[39] <= 1
 mccormick3[40]: x[40] + u[40] - r[40] <= 1
 mccormick3[41]: x[41] + u[41] - r[41] <= 1
 mccormick3[42]: x[42] + u[42] - r[42] <= 1
 mccormick3[43]: x[43] + u[43] - r[43] <= 1
 mccormick3[44]: x[44] + u[44] - r[44] <= 1
 mccormick3[45]: x[45] + u[45] - r[45] <= 1
 mccormick3[46]: x[46] + u[46] - r[46] <= 1
 mccormick3[47]: x[47] + u[47] - r[47] <= 1
 mccormick3[48]: x[48] + u[48] - r[48] <= 1
 mccormick3[49]: x[49] + u[49] - r[49] <= 1
 mccormick3[50]: x[50] + u[50] - r[50] <= 1
 mccormick3[51]: x[51] + u[51] - r[51] <= 1
 mccormick3[52]: x[52] + u[52] - r[52] <= 1
 mccormick3[53]: x[53] + u[53] - r[53] <= 1
 mccormick3[54]: x[54] + u[54] - r[54] <= 1
 mccormick3[55]: x[55] + u[55] - r[55] <= 1
 mccormick3[56]: x[56] + u[56] - r[56] <= 1
 mccormick3[57]: x[57] + u[57] - r[57] <= 1
 mccormick3[58]: x[58] + u[58] - r[58] <= 1
 mccormick3[59]: x[59] + u[59] - r[59] <= 1
 mccormick3[60]: x[60] + u[60] - r[60] <= 1
 mccormick3[61]: x[61] + u[61] - r[61] <= 1
 mccormick3[62]: x[62] + u[62] - r[62] <= 1
 mccormick3[63]: x[63] + u[63] - r[63] <= 1
 mccormick3[64]: x[64] + u[64] - r[64] <= 1
 mccormick3[65]: x[65] + u[65] - r[65] <= 1
 mccormick3[66]: x[66] + u[66] - r[66] <= 1
 mccormick3[67]: x[67] + u[67] - r[67] <= 1
 mccormick3[68]: x[68] + u[68] - r[68] <= 1
 mccormick3[69]: x[69] + u[69] - r[69] <= 1
 mccormick3[70]: x[70] + u[70] - r[70] <= 1
 mccormick3[71]: x[71] + u[71] - r[71] <= 1
 mccormick3[72]: x[72] + u[72] - r[72] <= 1
 mccormick3[73]: x[73] + u[73] - r[73] <= 1
 mccormick3[74]: x[74] + u[74] - r[74] <= 1
 mccormick3[75]: x[75] + u[75] - r[75] <= 1
 mccormick3[76]: x[76] + u[76] - r[76] <= 1
 mccormick3[77]: x[77] + u[77] - r[77] <= 1
 mccormick3[78]: x[78] + u[78] - r[78] <= 1
 mccormick3[79]: x[79] + u[79] - r[79] <= 1
 mccormick3[80]: x[80] + u[80] - r[80] <= 1
 mccormick3[81]: x[81] + u[81] - r[81] <= 1
 mccormick3[82]: x[82] + u[82] - r[82] <= 1
 mccormick3[83]: x[83] + u[83] - r[83] <= 1
 mccormick3[84]: x[84] + u[84] - r[84] <= 1
 mccormick3[85]: x[85] + u[85] - r[85] <= 1
 mccormick3[86]: x[86] + u[86] - r[86] <= 1
 mccormick3[87]: x[87] + u[87] - r[87] <= 1
 mccormick3[88]: x[88] + u[88] - r[88] <= 1
 mccormick3[89]: x[89] + u[89] - r[89] <= 1
 mccormick3[90]: x[90] + u[90] - r[90] <= 1
 mccormick3[91]: x[91] + u[91] - r[91] <= 1
 mccormick3[92]: x[92] + u[92] - r[92] <= 1
 mccormick3[93]: x[93] + u[93] - r[93] <= 1
 mccormick3[94]: x[94] + u[94] - r[94] <= 1
 mccormick3[95]: x[95] + u[95] - r[95] <= 1
 mccormick3[96]: x[96] + u[96] - r[96] <= 1
 mccormick3[97]: x[97] + u[97] - r[97] <= 1
 mccormick3[98]: x[98] + u[98] - r[98] <= 1
 mccormick3[99]: x[99] + u[99] - r[99] <= 1
 mccormick3[100]: x[100] + u[100] - r[100] <= 1
 mccormick3[101]: x[101] + u[101] - r[101] <= 1
 mccormick3[102]: x[102] + u[102] - r[102] <= 1
 mccormick3[103]: x[103] + u[103] - r[103] <= 1
 mccormick3[104]: x[104] + u[104] - r[104] <= 1
 mccormick3[105]: x[105] + u[105] - r[105] <= 1
 mccormick3[106]: x[106] + u[106] - r[106] <= 1
 mccormick3[107]: x[107] + u[107] - r[107] <= 1
 mccormick3[108]: x[108] + u[108] - r[108] <= 1
 mccormick3[109]: x[109] + u[109] - r[109] <= 1
 mccormick3[110]: x[110] + u[110] - r[110] <= 1
 mccormick3[111]: x[111] + u[111] - r[111] <= 1
 mccormick3[112]: x[112] + u[112] - r[112] <= 1
 mccormick3[113]: x[113] + u[113] - r[113] <= 1
 mccormick3[114]: x[114] + u[114] - r[114] <= 1
 mccormick3[115]: x[115] + u[115] - r[115] <= 1
 mccormick3[116]: x[116] + u[116] - r[116] <= 1
 mccormick3[117]: x[117] + u[117] - r[117] <= 1
 mccormick3[118]: x[118] + u[118] - r[118] <= 1
 mccormick3[119]: x[119] + u[119] - r[119] <= 1
Bounds
Binaries
 x[0] x[1] x[2] x[3] x[4] x[5] x[6] x[7] x[8] x[9] x[10] x[11] x[12] x[13]
 x[14] x[15] x[16] x[17] x[18] x[19] x[20] x[21] x[22] x[23] x[24] x[25]
 x[26] x[27] x[28] x[29] x[30] x[31] x[32] x[33] x[34] x[35] x[36] x[37]
 x[38] x[39] x[40] x[41] x[42] x[43] x[44] x[45] x[46] x[47] x[48] x[49]
 x[50] x[51] x[52] x[53] x[54] x[55] x[56] x[57] x[58] x[59] x[60] x[61]
 x[62] x[63] x[64] x[65] x[66] x[67] x[68] x[69] x[70] x[71] x[72] x[73]
 x[74] x[75] x[76] x[77] x[78] x[79] x[80] x[81] x[82] x[83] x[84] x[85]
 x[86] x[87] x[88] x[89] x[90] x[91] x[92] x[93] x[94] x[95] x[96] x[97]
 x[98] x[99] x[100] x[101] x[102] x[103] x[104] x[105] x[106] x[107] x[108]
 x[109] x[110] x[111] x[112] x[113] x[114] x[115] x[116] x[117] x[118]
 x[119] u[0] u[1] u[2] u[3] u[4] u[5] u[6] u[7] u[8] u[9] u[10] u[11] u[12]
 u[13] u[14] u[15] u[16] u[17] u[18] u[19] u[20] u[21] u[22] u[23] u[24]
 u[25] u[26] u[27] u[28] u[29] u[30] u[31] u[32] u[33] u[34] u[35] u[36]
 u[37] u[38] u[39] u[40] u[41] u[42] u[43] u[44] u[45] u[46] u[47] u[48]
 u[49] u[50] u[51] u[52] u[53] u[54] u[55] u[56] u[57] u[58] u[59] u[60]
 u[61] u[62] u[63] u[64] u[65] u[66] u[67] u[68] u[69] u[70] u[71] u[72]
 u[73] u[74] u[75] u[76] u[77] u[78] u[79] u[80] u[81] u[82] u[83] u[84]
 u[85] u[86] u[87] u[88] u[89] u[90] u[91] u[92] u[93] u[94] u[95] u[96]
 u[97] u[98] u[99] u[100] u[101] u[102] u[103] u[104] u[105] u[106] u[107]
 u[108] u[109] u[110] u[111] u[112] u[113] u[114] u[115] u[116] u[117]
 u[118] u[119] r[0] r[1] r[2] r[3] r[4] r[5] r[6] r[7] r[8] r[9] r[10]
 r[11] r[12] r[13] r[14] r[15] r[16] r[17] r[18] r[19] r[20] r[21] r[22]
 r[23] r[24] r[25] r[26] r[27] r[28] r[29] r[30] r[31] r[32] r[33] r[34]
 r[35] r[36] r[37] r[38] r[39] r[40] r[41] r[42] r[43] r[44] r[45] r[46]
 r[47] r[48] r[49] r[50] r[51] r[52] r[53] r[54] r[55] r[56] r[57] r[58]
 r[59] r[60] r[61] r[62] r[63] r[64] r[65] r[66] r[67] r[68] r[69] r[70]
 r[71] r[72] r[73] r[74] r[75] r[76] r[77] r[78] r[79] r[80] r[81] r[82]
 r[83] r[84] r[85] r[86] r[87] r[88] r[89] r[90] r[91] r[92] r[93] r[94]
 r[95] r[96] r[97] r[98] r[99] r[100] r[101] r[102] r[103] r[104] r[105]
 r[106] r[107] r[108] r[109] r[110] r[111] r[112] r[113] r[114] r[115]
 r[116] r[117] r[118] r[119]
End
