\ Model knapsack_70_4
\ LP format - for model browsing. Use MPS format to capture full model detail.
\ Signature: 0x9699bb600e206d84
Minimize
  - 0.59 x[0] - 0.19 x[1] - 0.81 x[2] - 0.73 x[3] - 0.26 x[4] - 0.26 x[5]
   - 0.74 x[6] - 0.68 x[7] - 0.75 x[8] - 0.71 x[9] - 0.12 x[10]
   - 0.52 x[11] - 0.96 x[12] - 0.63 x[13] - 0.24 x[14] - 0.01 x[15]
   - 0.11 x[16] - 0.15 x[17] - 0.15 x[18] - 0.98 x[19] - 0.98 x[20]
   - 0.64 x[21] - 0.93 x[22] - 0.17 x[23] - 0.06 x[24] - 0.23 x[25]
   - 0.85 x[26] - 0.92 x[27] - 0.43 x[28] - 0.93 x[29] - 0.26 x[30]
   - 0.77 x[31] - 0.97 x[32] - 0.16 x[33] - 0.92 x[34] - 0.78 x[35]
   - 0.18 x[36] - 0.08 x[37] - 0.35 x[38] - 0.24 x[39] - 0.85 x[40]
   - 0.78 x[41] - 0.22 x[42] - 0.96 x[43] - 0.83 x[44] - 0.04 x[45]
   - 0.73 x[46] - 0.81 x[47] - 0.33 x[48] - 0.26 x[49] - 0.88 x[50]
   - 0.27 x[51] - 0.84 x[52] - 0.5 x[53] - 0.13 x[54] - 0.83 x[55]
   - 0.07 x[56] - 0.13 x[57] - 0.65 x[58] - 0.28 x[59] - 0.61 x[60]
   - 0.39 x[61] - 0.66 x[62] - 0.18 x[63] - 0.67 x[64] - 0.98 x[65]
   - 0.54 x[66] - 0.26 x[67] - 0.81 x[68] - 0.38 x[69]
Subject To
 primal_upper: 66 x[0] + 91 x[1] + 25 x[2] + 34 x[3] + 83 x[4] + 88 x[5]
   + 8 x[6] + 58 x[7] + 40 x[8] + 13 x[9] + 62 x[10] + 94 x[11] + 87 x[12]
   + 99 x[13] + 99 x[14] + 11 x[15] + 68 x[16] + 27 x[17] + 84 x[18]
   + 37 x[19] + 72 x[20] + 22 x[21] + 31 x[22] + 21 x[23] + 75 x[24]
   + 99 x[25] + 93 x[26] + 62 x[27] + 48 x[28] + 14 x[29] + 32 x[30]
   + 34 x[31] + 58 x[32] + 88 x[33] + 55 x[34] + 12 x[35] + 83 x[36]
   + 3 x[37] + 31 x[38] + 9 x[39] + 14 x[40] + 20 x[41] + 41 x[42]
   + 92 x[43] + 62 x[44] + 61 x[45] + 72 x[46] + 80 x[47] + 82 x[48]
   + 15 x[49] + 65 x[50] + 51 x[51] + 8 x[52] + 23 x[53] + 11 x[54]
   + 58 x[55] + 24 x[56] + 21 x[57] + 47 x[58] + 49 x[59] + 55 x[60]
   + 73 x[61] + 42 x[62] + 69 x[63] + 46 x[64] + 43 x[65] + 23 x[66]
   + 97 x[67] + 71 x[68] + 96 x[69] + 6.6 r[0] + 9.1 r[1] + 2.5 r[2]
   + 3.4 r[3] + 8.3 r[4] + 8.8 r[5] + 0.8 r[6] + 5.8 r[7] + 4 r[8]
   + 1.3 r[9] + 6.2 r[10] + 9.4 r[11] + 8.7 r[12] + 9.9 r[13] + 9.9 r[14]
   + 1.1 r[15] + 6.8 r[16] + 2.7 r[17] + 8.4 r[18] + 3.7 r[19] + 7.2 r[20]
   + 2.2 r[21] + 3.1 r[22] + 2.1 r[23] + 7.5 r[24] + 9.9 r[25] + 9.3 r[26]
   + 6.2 r[27] + 4.8 r[28] + 1.4 r[29] + 3.2 r[30] + 3.4 r[31] + 5.8 r[32]
   + 8.8 r[33] + 5.5 r[34] + 1.2 r[35] + 8.3 r[36] + 0.3 r[37] + 3.1 r[38]
   + 0.9 r[39] + 1.4 r[40] + 2 r[41] + 4.1 r[42] + 9.2 r[43] + 6.2 r[44]
   + 6.1 r[45] + 7.2 r[46] + 8 r[47] + 8.2 r[48] + 1.5 r[49] + 6.5 r[50]
   + 5.1 r[51] + 0.8 r[52] + 2.3 r[53] + 1.1 r[54] + 5.8 r[55] + 2.4 r[56]
   + 2.1 r[57] + 4.7 r[58] + 4.9 r[59] + 5.5 r[60] + 7.3 r[61] + 4.2 r[62]
   + 6.9 r[63] + 4.6 r[64] + 4.3 r[65] + 2.3 r[66] + 9.7 r[67] + 7.1 r[68]
   + 9.6 r[69] <= 329
 primal_lower: - 2.44 x[0] - 2.1 x[1] - 1.38 x[2] - 2.22 x[3] - 3.02 x[4]
   - 0.28 x[5] - 3.61 x[6] - 2.92 x[7] - 1.87 x[8] - 0.07 x[9] - 1.99 x[10]
   - 2.01 x[11] - 0.95 x[12] - 1.81 x[13] - 0.2 x[14] - 3.75 x[15]
   - 0.39 x[16] - 1.85 x[17] - 3.38 x[18] - x[19] - 2.42 x[20] - 0.26 x[21]
   - 3.53 x[22] - 2.83 x[23] - 0.55 x[24] - 2.76 x[25] - 1.2 x[26]
   - 1.94 x[27] - 3.75 x[28] - 1.49 x[29] - 2.04 x[30] - 3.76 x[31]
   - 2.97 x[32] - 1.96 x[33] - 2.88 x[34] - 2.6 x[35] - 0.24 x[36]
   - 3.41 x[37] - 2.93 x[38] - 2 x[39] - 3.13 x[40] - 0.56 x[41]
   - 0.73 x[42] - 0.51 x[43] - 0.9 x[44] - 1.19 x[45] - 0.32 x[46]
   - 2.81 x[47] - 0.8 x[48] - 1.03 x[49] - 2.1 x[50] - 0.29 x[51]
   - 3.15 x[52] - 1.83 x[53] - 0.46 x[54] - 2.94 x[55] - 1.55 x[56]
   - 0.73 x[57] - 1.75 x[58] - 1.47 x[59] - 3.98 x[60] - 0.23 x[61]
   - 3.52 x[62] - 1.97 x[63] - 2.54 x[64] - 1.82 x[65] - 2.19 x[66]
   - 1.02 x[67] - 2.01 x[68] - 3.74 x[69] + 81 u[0] + u[1] + 15 u[2]
   + 20 u[3] + 57 u[4] + 83 u[5] + 90 u[6] + 65 u[7] + 78 u[8] + 95 u[9]
   + 45 u[10] + 64 u[11] + 97 u[12] + 9 u[13] + 34 u[14] + 86 u[15]
   + 18 u[16] + 37 u[17] + 30 u[18] + 3 u[19] + 14 u[20] + 29 u[21]
   + 53 u[22] + 92 u[23] + 2 u[24] + 5 u[25] + 59 u[26] + 37 u[27]
   + 79 u[28] + 68 u[29] + 79 u[30] + 37 u[31] + 65 u[32] + 34 u[33]
   + 13 u[34] + 78 u[35] + 53 u[36] + 26 u[37] + 17 u[38] + 8 u[39]
   + 100 u[40] + 91 u[41] + 23 u[42] + 55 u[43] + 12 u[44] + 64 u[45]
   + 43 u[46] + 59 u[47] + 88 u[48] + 57 u[49] + 36 u[50] + 61 u[51]
   + 10 u[52] + 57 u[53] + 38 u[54] + 13 u[55] + 2 u[56] + 12 u[57]
   + 81 u[58] + 15 u[59] + 22 u[60] + 24 u[61] + 5 u[62] + 16 u[63]
   + 93 u[64] + 25 u[65] + 30 u[66] + 72 u[67] + 13 u[68] + 15 u[69]
   <= 280
 mccormick1[0]: - u[0] + r[0] <= 0
 mccormick1[1]: - u[1] + r[1] <= 0
 mccormick1[2]: - u[2] + r[2] <= 0
 mccormick1[3]: - u[3] + r[3] <= 0
 mccormick1[4]: - u[4] + r[4] <= 0
 mccormick1[5]: - u[5] + r[5] <= 0
 mccormick1[6]: - u[6] + r[6] <= 0
 mccormick1[7]: - u[7] + r[7] <= 0
 mccormick1[8]: - u[8] + r[8] <= 0
 mccormick1[9]: - u[9] + r[9] <= 0
 mccormick1[10]: - u[10] + r[10] <= 0
 mccormick1[11]: - u[11] + r[11] <= 0
 mccormick1[12]: - u[12] + r[12] <= 0
 mccormick1[13]: - u[13] + r[13] <= 0
 mccormick1[14]: - u[14] + r[14] <= 0
 mccormick1[15]: - u[15] + r[15] <= 0
 mccormick1[16]: - u[16] + r[16] <= 0
 mccormick1[17]: - u[17] + r[17] <= 0
 mccormick1[18]: - u[18] + r[18] <= 0
 mccormick1[19]: - u[19] + r[19] <= 0
 mccormick1[20]: - u[20] + r[20] <= 0
 mccormick1[21]: - u[21] + r[21] <= 0
 mccormick1[22]: - u[22] + r[22] <= 0
 mccormick1[23]: - u[23] + r[23] <= 0
 mccormick1[24]: - u[24] + r[24] <= 0
 mccormick1[25]: - u[25] + r[25] <= 0
 mccormick1[26]: - u[26] + r[26] <= 0
 mccormick1[27]: - u[27] + r[27] <= 0
 mccormick1[28]: - u[28] + r[28] <= 0
 mccormick1[29]: - u[29] + r[29] <= 0
 mccormick1[30]: - u[30] + r[30] <= 0
 mccormick1[31]: - u[31] + r[31] <= 0
 mccormick1[32]: - u[32] + r[32] <= 0
 mccormick1[33]: - u[33] + r[33] <= 0
 mccormick1[34]: - u[34] + r[34] <= 0
 mccormick1[35]: - u[35] + r[35] <= 0
 mccormick1[36]: - u[36] + r[36] <= 0
 mccormick1[37]: - u[37] + r[37] <= 0
 mccormick1[38]: - u[38] + r[38] <= 0
 mccormick1[39]: - u[39] + r[39] <= 0
 mccormick1[40]: - u[40] + r[40] <= 0
 mccormick1[41]: - u[41] + r[41] <= 0
 mccormick1[42]: - u[42] + r[42] <= 0
 mccormick1[43]: - u[43] + r[43] <= 0
 mccormick1[44]: - u[44] + r[44] <= 0
 mccormick1[45]: - u[45] + r[45] <= 0
 mccormick1[46]: - u[46] + r[46] <= 0
 mccormick1[47]: - u[47] + r[47] <= 0
 mccormick1[48]: - u[48] + r[48] <= 0
 mccormick1[49]: - u[49] + r[49] <= 0
 mccormick1[50]: - u[50] + r[50] <= 0
 mccormick1[51]: - u[51] + r[51] <= 0
 mccormick1[52]: - u[52] + r[52] <= 0
 mccormick1[53]: - u[53] + r[53] <= 0
 mccormick1[54]: - u[54] + r[54] <= 0
 mccormick1[55]: - u[55] + r[55] <= 0
 mccormick1[56]: - u[56] + r[56] <= 0
 mccormick1[57]: - u[57] + r[57] <= 0
 mccormick1[58]: - u[58] + r[58] <= 0
 mccormick1[59]: - u[59] + r[59] <= 0
 mccormick1[60]: - u[60] + r[60] <= 0
 mccormick1[61]: - u[61] + r[61] <= 0
 mccormick1[62]: - u[62] + r[62] <= 0
 mccormick1[63]: - u[63] + r[63] <= 0
 mccormick1[64]: - u[64] + r[64] <= 0
 mccormick1[65]: - u[65] + r[65] <= 0
 mccormick1[66]: - u[66] + r[66] <= 0
 mccormick1[67]: - u[67] + r[67] <= 0
 mccormick1[68]: - u[68] + r[68] <= 0
 mccormick1[69]: - u[69] + r[69] <= 0
 mccormick2[0]: - x[0] + r[0] <= 0
 mccormick2[1]: - x[1] + r[1] <= 0
 mccormick2[2]: - x[2] + r[2] <= 0
 mccormick2[3]: - x[3] + r[3] <= 0
 mccormick2[4]: - x[4] + r[4] <= 0
 mccormick2[5]: - x[5] + r[5] <= 0
 mccormick2[6]: - x[6] + r[6] <= 0
 mccormick2[7]: - x[7] + r[7] <= 0
 mccormick2[8]: - x[8] + r[8] <= 0
 mccormick2[9]: - x[9] + r[9] <= 0
 mccormick2[10]: - x[10] + r[10] <= 0
 mccormick2[11]: - x[11] + r[11] <= 0
 mccormick2[12]: - x[12] + r[12] <= 0
 mccormick2[13]: - x[13] + r[13] <= 0
 mccormick2[14]: - x[14] + r[14] <= 0
 mccormick2[15]: - x[15] + r[15] <= 0
 mccormick2[16]: - x[16] + r[16] <= 0
 mccormick2[17]: - x[17] + r[17] <= 0
 mccormick2[18]: - x[18] + r[18] <= 0
 mccormick2[19]: - x[19] + r[19] <= 0
 mccormick2[20]: - x[20] + r[20] <= 0
 mccormick2[21]: - x[21] + r[21] <= 0
 mccormick2[22]: - x[22] + r[22] <= 0
 mccormick2[23]: - x[23] + r[23] <= 0
 mccormick2[24]: - x[24] + r[24] <= 0
 mccormick2[25]: - x[25] + r[25] <= 0
 mccormick2[26]: - x[26] + r[26] <= 0
 mccormick2[27]: - x[27] + r[27] <= 0
 mccormick2[28]: - x[28] + r[28] <= 0
 mccormick2[29]: - x[29] + r[29] <= 0
 mccormick2[30]: - x[30] + r[30] <= 0
 mccormick2[31]: - x[31] + r[31] <= 0
 mccormick2[32]: - x[32] + r[32] <= 0
 mccormick2[33]: - x[33] + r[33] <= 0
 mccormick2[34]: - x[34] + r[34] <= 0
 mccormick2[35]: - x[35] + r[35] <= 0
 mccormick2[36]: - x[36] + r[36] <= 0
 mccormick2[37]: - x[37] + r[37] <= 0
 mccormick2[38]: - x[38] + r[38] <= 0
 mccormick2[39]: - x[39] + r[39] <= 0
 mccormick2[40]: - x[40] + r[40] <= 0
 mccormick2[41]: - x[41] + r[41] <= 0
 mccormick2[42]: - x[42] + r[42] <= 0
 mccormick2[43]: - x[43] + r[43] <= 0
 mccormick2[44]: - x[44] + r[44] <= 0
 mccormick2[45]: - x[45] + r[45] <= 0
 mccormick2[46]: - x[46] + r[46] <= 0
 mccormick2[47]: - x[47] + r[47] <= 0
 mccormick2[48]: - x[48] + r[48] <= 0
 mccormick2[49]: - x[49] + r[49] <= 0
 mccormick2[50]: - x[50] + r[50] <= 0
 mccormick2[51]: - x[51] + r[51] <= 0
 mccormick2[52]: - x[52] + r[52] <= 0
 mccormick2[53]: - x[53] + r[53] <= 0
 mccormick2[54]: - x[54] + r[54] <= 0
 mccormick2[55]: - x[55] + r[55] <= 0
 mccormick2[56]: - x[56] + r[56] <= 0
 mccormick2[57]: - x[57] + r[57] <= 0
 mccormick2[58]: - x[58] + r[58] <= 0
 mccormick2[59]: - x[59] + r[59] <= 0
 mccormick2[60]: - x[60] + r[60] <= 0
 mccormick2[61]: - x[61] + r[61] <= 0
 mccormick2[62]: - x[62] + r[62] <= 0
 mccormick2[63]: - x[63] + r[63] <= 0
 mccormick2[64]: - x[64] + r[64] <= 0
 mccormick2[65]: - x[65] + r[65] <= 0
 mccormick2[66]: - x[66] + r[66] <= 0
 mccormick2[67]: - x[67] + r[67] <= 0
 mccormick2[68]: - x[68] + r[68] <= 0
 mccormick2[69]: - x[69] + r[69] <= 0
 mccormick3[0]: x[0] + u[0] - r[0] <= 1
 mccormick3[1]: x[1] + u[1] - r[1] <= 1
 mccormick3[2]: x[2] + u[2] - r[2] <= 1
 mccormick3[3]: x[3] + u[3] - r[3] <= 1
 mccormick3[4]: x[4] + u[4] - r[4] <= 1
 mccormick3[5]: x[5] + u[5] - r[5] <= 1
 mccormick3[6]: x[6] + u[6] - r[6] <= 1
 mccormick3[7]: x[7] + u[7] - r[7] <= 1
 mccormick3[8]: x[8] + u[8] - r[8] <= 1
 mccormick3[9]: x[9] + u[9] - r[9] <= 1
 mccormick3[10]: x[10] + u[10] - r[10] <= 1
 mccormick3[11]: x[11] + u[11] - r[11] <= 1
 mccormick3[12]: x[12] + u[12] - r[12] <= 1
 mccormick3[13]: x[13] + u[13] - r[13] <= 1
 mccormick3[14]: x[14] + u[14] - r[14] <= 1
 mccormick3[15]: x[15] + u[15] - r[15] <= 1
 mccormick3[16]: x[16] + u[16] - r[16] <= 1
 mccormick3[17]: x[17] + u[17] - r[17] <= 1
 mccormick3[18]: x[18] + u[18] - r[18] <= 1
 mccormick3[19]: x[19] + u[19] - r[19] <= 1
 mccormick3[20]: x[20] + u[20] - r[20] <= 1
 mccormick3[21]: x[21] + u[21] - r[21] <= 1
 mccormick3[22]: x[22] + u[22] - r[22] <= 1
 mccormick3[23]: x[23] + u[23] - r[23] <= 1
 mccormick3[24]: x[24] + u[24] - r[24] <= 1
 mccormick3[25]: x[25] + u[25] - r[25] <= 1
 mccormick3[26]: x[26] + u[26] - r[26] <= 1
 mccormick3[27]: x[27] + u[27] - r[27] <= 1
 mccormick3[28]: x[28] + u[28] - r[28] <= 1
 mccormick3[29]: x[29] + u[29] - r[29] <= 1
 mccormick3[30]: x[30] + u[30] - r[30] <= 1
 mccormick3[31]: x[31] + u[31] - r[31] <= 1
 mccormick3[32]: x[32] + u[32] - r[32] <= 1
 mccormick3[33]: x[33] + u[33] - r[33] <= 1
 mccormick3[34]: x[34] + u[34] - r[34] <= 1
 mccormick3[35]: x[35] + u[35] - r[35] <= 1
 mccormick3[36]: x[36] + u[36] - r[36] <= 1
 mccormick3[37]: x[37] + u[37] - r[37] <= 1
 mccormick3[38]: x[38] + u[38] - r[38] <= 1
 mccormick3[39]: x[39] + u[39] - r[39] <= 1
 mccormick3[40]: x[40] + u[40] - r[40] <= 1
 mccormick3[41]: x[41] + u[41] - r[41] <= 1
 mccormick3[42]: x[42] + u[42] - r[42] <= 1
 mccormick3[43]: x[43] + u[43] - r[43] <= 1
 mccormick3[44]: x[44] + u[44] - r[44] <= 1
 mccormick3[45]: x[45] + u[45] - r[45] <= 1
 mccormick3[46]: x[46] + u[46] - r[46] <= 1
 mccormick3[47]: x[47] + u[47] - r[47] <= 1
 mccormick3[48]: x[48] + u[48] - r[48] <= 1
 mccormick3[49]: x[49] + u[49] - r[49] <= 1
 mccormick3[50]: x[50] + u[50] - r[50] <= 1
 mccormick3[51]: x[51] + u[51] - r[51] <= 1
 mccormick3[52]: x[52] + u[52] - r[52] <= 1
 mccormick3[53]: x[53] + u[53] - r[53] <= 1
 mccormick3[54]: x[54] + u[54] - r[54] <= 1
 mccormick3[55]: x[55] + u[55] - r[55] <= 1
 mccormick3[56]: x[56] + u[56] - r[56] <= 1
 mccormick3[57]: x[57] + u[57] - r[57] <= 1
 mccormick3[58]: x[58] + u[58] - r[58] <= 1
 mccormick3[59]: x[59] + u[59] - r[59] <= 1
 mccormick3[60]: x[60] + u[60] - r[60] <= 1
 mccormick3[61]: x[61] + u[61] - r[61] <= 1
 mccormick3[62]: x[62] + u[62] - r[62] <= 1
 mccormick3[63]: x[63] + u[63] - r[63] <= 1
 mccormick3[64]: x[64] + u[64] - r[64] <= 1
 mccormick3[65]: x[65] + u[65] - r[65] <= 1
 mccormick3[66]: x[66] + u[66] - r[66] <= 1
 mccormick3[67]: x[67] + u[67] - r[67] <= 1
 mccormick3[68]: x[68] + u[68] - r[68] <= 1
 mccormick3[69]: x[69] + u[69] - r[69] <= 1
Bounds
Binaries
 x[0] x[1] x[2] x[3] x[4] x[5] x[6] x[7] x[8] x[9] x[10] x[11] x[12] x[13]
 x[14] x[15] x[16] x[17] x[18] x[19] x[20] x[21] x[22] x[23] x[24] x[25]
 x[26] x[27] x[28] x[29] x[30] x[31] x[32] x[33] x[34] x[35] x[36] x[37]
 x[38] x[39] x[40] x[41] x[42] x[43] x[44] x[45] x[46] x[47] x[48] x[49]
 x[50] x[51] x[52] x[53] x[54] x[55] x[56] x[57] x[58] x[59] x[60] x[61]
 x[62] x[63] x[64] x[65] x[66] x[67] x[68] x[69] u[0] u[1] u[2] u[3] u[4]
 u[5] u[6] u[7] u[8] u[9] u[10] u[11] u[12] u[13] u[14] u[15] u[16] u[17]
 u[18] u[19] u[20] u[21] u[22] u[23] u[24] u[25] u[26] u[27] u[28] u[29]
 u[30] u[31] u[32] u[33] u[34] u[35] u[36] u[37] u[38] u[39] u[40] u[41]
 u[42] u[43] u[44] u[45] u[46] u[47] u[48] u[49] u[50] u[51] u[52] u[53]
 u[54] u[55] u[56] u[57] u[58] u[59] u[60] u[61] u[62] u[63] u[64] u[65]
 u[66] u[67] u[68] u[69] r[0] r[1] r[2] r[3] r[4] r[5] r[6] r[7] r[8] r[9]
 r[10] r[11] r[12] r[13] r[14] r[15] r[16] r[17] r[18] r[19] r[20] r[21]
 r[22] r[23] r[24] r[25] r[26] r[27] r[28] r[29] r[30] r[31] r[32] r[33]
 r[34] r[35] r[36] r[37] r[38] r[39] r[40] r[41] r[42] r[43] r[44] r[45]
 r[46] r[47] r[48] r[49] r[50] r[51] r[52] r[53] r[54] r[55] r[56] r[57]
 r[58] r[59] r[60] r[61] r[62] r[63] r[64] r[65] r[66] r[67] r[68] r[69]
End
