\ Model knapsack_120_5
\ LP format - for model browsing. Use MPS format to capture full model detail.
\ Signature: 0xfe6f4f1f3c5eb040
Minimize
  - 0.84 x[0] - 0.04 x[1] - 0.62 x[2] - 0.7 x[3] - 0.75 x[4] - 0.55 x[5]
   - 0.19 x[6] - 0.69 x[7] - 0.56 x[8] - 0.48 x[9] - 0.01 x[10]
   - 0.69 x[11] - 0.37 x[12] - 0.84 x[13] - 0.69 x[14] - 0.66 x[15]
   - 0.48 x[16] - 0.04 x[17] - 0.44 x[18] - 0.07 x[19] - 0.83 x[20]
   - 0.05 x[21] - 0.9 x[22] - 0.98 x[23] - 0.87 x[24] - 0.28 x[25]
   - 0.46 x[26] - 0.09 x[27] - 0.24 x[28] - 0.06 x[29] - 0.55 x[30]
   - 0.46 x[31] - 0.86 x[32] - 0.73 x[33] - 0.65 x[34] - 0.47 x[35]
   - 0.51 x[36] - 0.41 x[37] - 0.76 x[38] - 0.29 x[39] - 0.58 x[40]
   - 0.31 x[41] - 0.51 x[42] - 0.05 x[43] - 0.04 x[44] - 0.21 x[45]
   - 0.38 x[46] - 0.7 x[47] - 0.94 x[48] - 0.67 x[49] - 0.17 x[50]
   - 0.72 x[51] - 0.21 x[52] - 0.07 x[53] - 0.02 x[54] - 0.56 x[55]
   - 0.04 x[56] - 0.22 x[57] - 0.74 x[58] - 0.41 x[59] - 0.54 x[60]
   - 0.8 x[61] - 0.11 x[62] - 0.63 x[63] - 0.8 x[64] - 0.15 x[65]
   - 0.23 x[66] - 0.75 x[67] - 0.38 x[68] - 0.19 x[69] - 0.03 x[70]
   - 0.37 x[71] - 0.99 x[72] - 0.03 x[73] - x[74] - 0.24 x[75] - 0.44 x[76]
   - 0.51 x[77] - 0.58 x[78] - 0.25 x[79] - 0.05 x[80] - 0.68 x[81]
   - 0.55 x[82] - 0.96 x[83] - 0.79 x[84] - 0.54 x[85] - 0.28 x[86]
   - 0.09 x[87] - 0.26 x[88] - 0.12 x[89] - 0.56 x[90] - 0.19 x[91]
   - 0.55 x[92] - 0.5 x[93] - 0.26 x[94] - 0.12 x[95] - 0.75 x[96]
   - 0.22 x[97] - 0.06 x[98] - 0.94 x[99] - 0.38 x[100] - 0.87 x[101]
   - 0.24 x[102] - 0.03 x[103] - 0.73 x[104] - 0.33 x[105] - 0.28 x[106]
   - 0.82 x[107] - 0.2 x[108] - 0.7 x[109] - 0.43 x[110] - 0.8 x[111]
   - 0.75 x[112] - 0.33 x[113] - 0.56 x[114] - 0.99 x[115] - 0.41 x[116]
   - 0.23 x[117] - 0.92 x[118] - 0.81 x[119] + 0.13 y[0] + 0.01 y[1]
   + 0.11 y[2] + 0.08 y[3] + 0.14 y[4] + 0.1 y[5] + 0.04 y[6] + 0.12 y[7]
   + 0.09 y[8] + 0.07 y[9] + 0.12 y[11] + 0.07 y[12] + 0.11 y[13]
   + 0.08 y[14] + 0.09 y[15] + 0.08 y[16] + 0.05 y[18] + 0.01 y[19]
   + 0.11 y[20] + 0.01 y[21] + 0.15 y[22] + 0.17 y[23] + 0.09 y[24]
   + 0.05 y[25] + 0.06 y[26] + 0.02 y[27] + 0.03 y[28] + 0.01 y[29]
   + 0.08 y[30] + 0.06 y[31] + 0.09 y[32] + 0.13 y[33] + 0.09 y[34]
   + 0.08 y[35] + 0.09 y[36] + 0.06 y[37] + 0.1 y[38] + 0.03 y[39]
   + 0.11 y[40] + 0.04 y[41] + 0.09 y[42] + 0.01 y[43] + 0.01 y[44]
   + 0.03 y[45] + 0.07 y[46] + 0.13 y[47] + 0.11 y[48] + 0.09 y[49]
   + 0.02 y[50] + 0.07 y[51] + 0.02 y[52] + 0.01 y[53] + 0.06 y[55]
   + 0.01 y[56] + 0.02 y[57] + 0.1 y[58] + 0.08 y[59] + 0.09 y[60]
   + 0.15 y[61] + 0.02 y[62] + 0.1 y[63] + 0.14 y[64] + 0.02 y[65]
   + 0.03 y[66] + 0.11 y[67] + 0.06 y[68] + 0.04 y[69] + 0.01 y[70]
   + 0.06 y[71] + 0.14 y[72] + 0.15 y[74] + 0.05 y[75] + 0.07 y[76]
   + 0.07 y[77] + 0.11 y[78] + 0.03 y[79] + 0.01 y[80] + 0.08 y[81]
   + 0.08 y[82] + 0.19 y[83] + 0.11 y[84] + 0.07 y[85] + 0.05 y[86]
   + 0.02 y[87] + 0.04 y[88] + 0.02 y[89] + 0.11 y[90] + 0.02 y[91]
   + 0.06 y[92] + 0.1 y[93] + 0.03 y[94] + 0.02 y[95] + 0.08 y[96]
   + 0.02 y[97] + 0.01 y[98] + 0.11 y[99] + 0.05 y[100] + 0.09 y[101]
   + 0.04 y[102] + 0.13 y[104] + 0.03 y[105] + 0.04 y[106] + 0.15 y[107]
   + 0.02 y[108] + 0.09 y[109] + 0.05 y[110] + 0.1 y[111] + 0.11 y[112]
   + 0.05 y[113] + 0.07 y[114] + 0.12 y[115] + 0.07 y[116] + 0.03 y[117]
   + 0.13 y[118] + 0.14 y[119]
Subject To
 primal_upper: 27 x[0] + 8 x[1] + 42 x[2] + 7 x[3] + 12 x[4] + 21 x[5]
   + 49 x[6] + 83 x[7] + 13 x[8] + 6 x[9] + 55 x[10] + 63 x[11] + 28 x[12]
   + 56 x[13] + 8 x[14] + 4 x[15] + 17 x[16] + 76 x[17] + 85 x[18]
   + 82 x[19] + 45 x[20] + 19 x[21] + 76 x[22] + 14 x[23] + 40 x[24]
   + 84 x[25] + 78 x[26] + 59 x[27] + 49 x[28] + 47 x[29] + 73 x[30]
   + 3 x[31] + 67 x[32] + 49 x[33] + 40 x[34] + 37 x[35] + 16 x[36]
   + 36 x[37] + 24 x[38] + 10 x[39] + 35 x[40] + 93 x[41] + 22 x[42]
   + 73 x[43] + 71 x[44] + 62 x[45] + 73 x[46] + 5 x[47] + 15 x[48]
   + 40 x[49] + 70 x[50] + 84 x[51] + 93 x[52] + 4 x[53] + 16 x[54]
   + 27 x[55] + 13 x[56] + 90 x[57] + 96 x[58] + 46 x[59] + 40 x[60]
   + 30 x[61] + 35 x[62] + 66 x[63] + 95 x[64] + 56 x[65] + 12 x[66]
   + 42 x[67] + 60 x[68] + 61 x[69] + 49 x[70] + 49 x[71] + 86 x[72]
   + 95 x[73] + 55 x[74] + 44 x[75] + 66 x[76] + 95 x[77] + 64 x[78]
   + 86 x[79] + 97 x[80] + 93 x[81] + 98 x[82] + 17 x[83] + 73 x[84]
   + x[85] + 19 x[86] + 52 x[87] + 42 x[88] + 51 x[89] + 96 x[90]
   + 12 x[91] + 64 x[92] + 15 x[93] + 80 x[94] + 33 x[95] + 41 x[96]
   + 40 x[97] + 84 x[98] + 100 x[99] + 77 x[100] + 68 x[101] + 14 x[102]
   + 44 x[103] + 49 x[104] + 50 x[105] + 35 x[106] + 50 x[107] + 90 x[108]
   + 89 x[109] + 10 x[110] + 3 x[111] + x[112] + 61 x[113] + 45 x[114]
   + 74 x[115] + 55 x[116] + 49 x[117] + 57 x[118] + 16 x[119] + 2.7 r[0]
   + 0.8 r[1] + 4.2 r[2] + 0.7 r[3] + 1.2 r[4] + 2.1 r[5] + 4.9 r[6]
   + 8.3 r[7] + 1.3 r[8] + 0.6 r[9] + 5.5 r[10] + 6.3 r[11] + 2.8 r[12]
   + 5.6 r[13] + 0.8 r[14] + 0.4 r[15] + 1.7 r[16] + 7.6 r[17] + 8.5 r[18]
   + 8.2 r[19] + 4.5 r[20] + 1.9 r[21] + 7.6 r[22] + 1.4 r[23] + 4 r[24]
   + 8.4 r[25] + 7.8 r[26] + 5.9 r[27] + 4.9 r[28] + 4.7 r[29] + 7.3 r[30]
   + 0.3 r[31] + 6.7 r[32] + 4.9 r[33] + 4 r[34] + 3.7 r[35] + 1.6 r[36]
   + 3.6 r[37] + 2.4 r[38] + r[39] + 3.5 r[40] + 9.3 r[41] + 2.2 r[42]
   + 7.3 r[43] + 7.1 r[44] + 6.2 r[45] + 7.3 r[46] + 0.5 r[47] + 1.5 r[48]
   + 4 r[49] + 7 r[50] + 8.4 r[51] + 9.3 r[52] + 0.4 r[53] + 1.6 r[54]
   + 2.7 r[55] + 1.3 r[56] + 9 r[57] + 9.6 r[58] + 4.6 r[59] + 4 r[60]
   + 3 r[61] + 3.5 r[62] + 6.6 r[63] + 9.5 r[64] + 5.6 r[65] + 1.2 r[66]
   + 4.2 r[67] + 6 r[68] + 6.1 r[69] + 4.9 r[70] + 4.9 r[71] + 8.6 r[72]
   + 9.5 r[73] + 5.5 r[74] + 4.4 r[75] + 6.6 r[76] + 9.5 r[77] + 6.4 r[78]
   + 8.6 r[79] + 9.7 r[80] + 9.3 r[81] + 9.8 r[82] + 1.7 r[83] + 7.3 r[84]
   + 0.1 r[85] + 1.9 r[86] + 5.2 r[87] + 4.2 r[88] + 5.1 r[89] + 9.6 r[90]
   + 1.2 r[91] + 6.4 r[92] + 1.5 r[93] + 8 r[94] + 3.3 r[95] + 4.1 r[96]
   + 4 r[97] + 8.4 r[98] + 10 r[99] + 7.7 r[100] + 6.8 r[101] + 1.4 r[102]
   + 4.4 r[103] + 4.9 r[104] + 5 r[105] + 3.5 r[106] + 5 r[107] + 9 r[108]
   + 8.9 r[109] + r[110] + 0.3 r[111] + 0.1 r[112] + 6.1 r[113]
   + 4.5 r[114] + 7.4 r[115] + 5.5 r[116] + 4.9 r[117] + 5.7 r[118]
   + 1.6 r[119] <= 533
 primal_lower_interdiction[0]: y[0] + u[0] <= 1
 primal_lower_interdiction[1]: y[1] + u[1] <= 1
 primal_lower_interdiction[2]: y[2] + u[2] <= 1
 primal_lower_interdiction[3]: y[3] + u[3] <= 1
 primal_lower_interdiction[4]: y[4] + u[4] <= 1
 primal_lower_interdiction[5]: y[5] + u[5] <= 1
 primal_lower_interdiction[6]: y[6] + u[6] <= 1
 primal_lower_interdiction[7]: y[7] + u[7] <= 1
 primal_lower_interdiction[8]: y[8] + u[8] <= 1
 primal_lower_interdiction[9]: y[9] + u[9] <= 1
 primal_lower_interdiction[10]: y[10] + u[10] <= 1
 primal_lower_interdiction[11]: y[11] + u[11] <= 1
 primal_lower_interdiction[12]: y[12] + u[12] <= 1
 primal_lower_interdiction[13]: y[13] + u[13] <= 1
 primal_lower_interdiction[14]: y[14] + u[14] <= 1
 primal_lower_interdiction[15]: y[15] + u[15] <= 1
 primal_lower_interdiction[16]: y[16] + u[16] <= 1
 primal_lower_interdiction[17]: y[17] + u[17] <= 1
 primal_lower_interdiction[18]: y[18] + u[18] <= 1
 primal_lower_interdiction[19]: y[19] + u[19] <= 1
 primal_lower_interdiction[20]: y[20] + u[20] <= 1
 primal_lower_interdiction[21]: y[21] + u[21] <= 1
 primal_lower_interdiction[22]: y[22] + u[22] <= 1
 primal_lower_interdiction[23]: y[23] + u[23] <= 1
 primal_lower_interdiction[24]: y[24] + u[24] <= 1
 primal_lower_interdiction[25]: y[25] + u[25] <= 1
 primal_lower_interdiction[26]: y[26] + u[26] <= 1
 primal_lower_interdiction[27]: y[27] + u[27] <= 1
 primal_lower_interdiction[28]: y[28] + u[28] <= 1
 primal_lower_interdiction[29]: y[29] + u[29] <= 1
 primal_lower_interdiction[30]: y[30] + u[30] <= 1
 primal_lower_interdiction[31]: y[31] + u[31] <= 1
 primal_lower_interdiction[32]: y[32] + u[32] <= 1
 primal_lower_interdiction[33]: y[33] + u[33] <= 1
 primal_lower_interdiction[34]: y[34] + u[34] <= 1
 primal_lower_interdiction[35]: y[35] + u[35] <= 1
 primal_lower_interdiction[36]: y[36] + u[36] <= 1
 primal_lower_interdiction[37]: y[37] + u[37] <= 1
 primal_lower_interdiction[38]: y[38] + u[38] <= 1
 primal_lower_interdiction[39]: y[39] + u[39] <= 1
 primal_lower_interdiction[40]: y[40] + u[40] <= 1
 primal_lower_interdiction[41]: y[41] + u[41] <= 1
 primal_lower_interdiction[42]: y[42] + u[42] <= 1
 primal_lower_interdiction[43]: y[43] + u[43] <= 1
 primal_lower_interdiction[44]: y[44] + u[44] <= 1
 primal_lower_interdiction[45]: y[45] + u[45] <= 1
 primal_lower_interdiction[46]: y[46] + u[46] <= 1
 primal_lower_interdiction[47]: y[47] + u[47] <= 1
 primal_lower_interdiction[48]: y[48] + u[48] <= 1
 primal_lower_interdiction[49]: y[49] + u[49] <= 1
 primal_lower_interdiction[50]: y[50] + u[50] <= 1
 primal_lower_interdiction[51]: y[51] + u[51] <= 1
 primal_lower_interdiction[52]: y[52] + u[52] <= 1
 primal_lower_interdiction[53]: y[53] + u[53] <= 1
 primal_lower_interdiction[54]: y[54] + u[54] <= 1
 primal_lower_interdiction[55]: y[55] + u[55] <= 1
 primal_lower_interdiction[56]: y[56] + u[56] <= 1
 primal_lower_interdiction[57]: y[57] + u[57] <= 1
 primal_lower_interdiction[58]: y[58] + u[58] <= 1
 primal_lower_interdiction[59]: y[59] + u[59] <= 1
 primal_lower_interdiction[60]: y[60] + u[60] <= 1
 primal_lower_interdiction[61]: y[61] + u[61] <= 1
 primal_lower_interdiction[62]: y[62] + u[62] <= 1
 primal_lower_interdiction[63]: y[63] + u[63] <= 1
 primal_lower_interdiction[64]: y[64] + u[64] <= 1
 primal_lower_interdiction[65]: y[65] + u[65] <= 1
 primal_lower_interdiction[66]: y[66] + u[66] <= 1
 primal_lower_interdiction[67]: y[67] + u[67] <= 1
 primal_lower_interdiction[68]: y[68] + u[68] <= 1
 primal_lower_interdiction[69]: y[69] + u[69] <= 1
 primal_lower_interdiction[70]: y[70] + u[70] <= 1
 primal_lower_interdiction[71]: y[71] + u[71] <= 1
 primal_lower_interdiction[72]: y[72] + u[72] <= 1
 primal_lower_interdiction[73]: y[73] + u[73] <= 1
 primal_lower_interdiction[74]: y[74] + u[74] <= 1
 primal_lower_interdiction[75]: y[75] + u[75] <= 1
 primal_lower_interdiction[76]: y[76] + u[76] <= 1
 primal_lower_interdiction[77]: y[77] + u[77] <= 1
 primal_lower_interdiction[78]: y[78] + u[78] <= 1
 primal_lower_interdiction[79]: y[79] + u[79] <= 1
 primal_lower_interdiction[80]: y[80] + u[80] <= 1
 primal_lower_interdiction[81]: y[81] + u[81] <= 1
 primal_lower_interdiction[82]: y[82] + u[82] <= 1
 primal_lower_interdiction[83]: y[83] + u[83] <= 1
 primal_lower_interdiction[84]: y[84] + u[84] <= 1
 primal_lower_interdiction[85]: y[85] + u[85] <= 1
 primal_lower_interdiction[86]: y[86] + u[86] <= 1
 primal_lower_interdiction[87]: y[87] + u[87] <= 1
 primal_lower_interdiction[88]: y[88] + u[88] <= 1
 primal_lower_interdiction[89]: y[89] + u[89] <= 1
 primal_lower_interdiction[90]: y[90] + u[90] <= 1
 primal_lower_interdiction[91]: y[91] + u[91] <= 1
 primal_lower_interdiction[92]: y[92] + u[92] <= 1
 primal_lower_interdiction[93]: y[93] + u[93] <= 1
 primal_lower_interdiction[94]: y[94] + u[94] <= 1
 primal_lower_interdiction[95]: y[95] + u[95] <= 1
 primal_lower_interdiction[96]: y[96] + u[96] <= 1
 primal_lower_interdiction[97]: y[97] + u[97] <= 1
 primal_lower_interdiction[98]: y[98] + u[98] <= 1
 primal_lower_interdiction[99]: y[99] + u[99] <= 1
 primal_lower_interdiction[100]: y[100] + u[100] <= 1
 primal_lower_interdiction[101]: y[101] + u[101] <= 1
 primal_lower_interdiction[102]: y[102] + u[102] <= 1
 primal_lower_interdiction[103]: y[103] + u[103] <= 1
 primal_lower_interdiction[104]: y[104] + u[104] <= 1
 primal_lower_interdiction[105]: y[105] + u[105] <= 1
 primal_lower_interdiction[106]: y[106] + u[106] <= 1
 primal_lower_interdiction[107]: y[107] + u[107] <= 1
 primal_lower_interdiction[108]: y[108] + u[108] <= 1
 primal_lower_interdiction[109]: y[109] + u[109] <= 1
 primal_lower_interdiction[110]: y[110] + u[110] <= 1
 primal_lower_interdiction[111]: y[111] + u[111] <= 1
 primal_lower_interdiction[112]: y[112] + u[112] <= 1
 primal_lower_interdiction[113]: y[113] + u[113] <= 1
 primal_lower_interdiction[114]: y[114] + u[114] <= 1
 primal_lower_interdiction[115]: y[115] + u[115] <= 1
 primal_lower_interdiction[116]: y[116] + u[116] <= 1
 primal_lower_interdiction[117]: y[117] + u[117] <= 1
 primal_lower_interdiction[118]: y[118] + u[118] <= 1
 primal_lower_interdiction[119]: y[119] + u[119] <= 1
 primal_lower_budget: u[0] + u[1] + u[2] + u[3] + u[4] + u[5] + u[6] + u[7]
   + u[8] + u[9] + u[10] + u[11] + u[12] + u[13] + u[14] + u[15] + u[16]
   + u[17] + u[18] + u[19] + u[20] + u[21] + u[22] + u[23] + u[24] + u[25]
   + u[26] + u[27] + u[28] + u[29] + u[30] + u[31] + u[32] + u[33] + u[34]
   + u[35] + u[36] + u[37] + u[38] + u[39] + u[40] + u[41] + u[42] + u[43]
   + u[44] + u[45] + u[46] + u[47] + u[48] + u[49] + u[50] + u[51] + u[52]
   + u[53] + u[54] + u[55] + u[56] + u[57] + u[58] + u[59] + u[60] + u[61]
   + u[62] + u[63] + u[64] + u[65] + u[66] + u[67] + u[68] + u[69] + u[70]
   + u[71] + u[72] + u[73] + u[74] + u[75] + u[76] + u[77] + u[78] + u[79]
   + u[80] + u[81] + u[82] + u[83] + u[84] + u[85] + u[86] + u[87] + u[88]
   + u[89] + u[90] + u[91] + u[92] + u[93] + u[94] + u[95] + u[96] + u[97]
   + u[98] + u[99] + u[100] + u[101] + u[102] + u[103] + u[104] + u[105]
   + u[106] + u[107] + u[108] + u[109] + u[110] + u[111] + u[112] + u[113]
   + u[114] + u[115] + u[116] + u[117] + u[118] + u[119] <= 2
 mccormick1[0]: - u[0] + r[0] <= 0
 mccormick1[1]: - u[1] + r[1] <= 0
 mccormick1[2]: - u[2] + r[2] <= 0
 mccormick1[3]: - u[3] + r[3] <= 0
 mccormick1[4]: - u[4] + r[4] <= 0
 mccormick1[5]: - u[5] + r[5] <= 0
 mccormick1[6]: - u[6] + r[6] <= 0
 mccormick1[7]: - u[7] + r[7] <= 0
 mccormick1[8]: - u[8] + r[8] <= 0
 mccormick1[9]: - u[9] + r[9] <= 0
 mccormick1[10]: - u[10] + r[10] <= 0
 mccormick1[11]: - u[11] + r[11] <= 0
 mccormick1[12]: - u[12] + r[12] <= 0
 mccormick1[13]: - u[13] + r[13] <= 0
 mccormick1[14]: - u[14] + r[14] <= 0
 mccormick1[15]: - u[15] + r[15] <= 0
 mccormick1[16]: - u[16] + r[16] <= 0
 mccormick1[17]: - u[17] + r[17] <= 0
 mccormick1[18]: - u[18] + r[18] <= 0
 mccormick1[19]: - u[19] + r[19] <= 0
 mccormick1[20]: - u[20] + r[20] <= 0
 mccormick1[21]: - u[21] + r[21] <= 0
 mccormick1[22]: - u[22] + r[22] <= 0
 mccormick1[23]: - u[23] + r[23] <= 0
 mccormick1[24]: - u[24] + r[24] <= 0
 mccormick1[25]: - u[25] + r[25] <= 0
 mccormick1[26]: - u[26] + r[26] <= 0
 mccormick1[27]: - u[27] + r[27] <= 0
 mccormick1[28]: - u[28] + r[28] <= 0
 mccormick1[29]: - u[29] + r[29] <= 0
 mccormick1[30]: - u[30] + r[30] <= 0
 mccormick1[31]: - u[31] + r[31] <= 0
 mccormick1[32]: - u[32] + r[32] <= 0
 mccormick1[33]: - u[33] + r[33] <= 0
 mccormick1[34]: - u[34] + r[34] <= 0
 mccormick1[35]: - u[35] + r[35] <= 0
 mccormick1[36]: - u[36] + r[36] <= 0
 mccormick1[37]: - u[37] + r[37] <= 0
 mccormick1[38]: - u[38] + r[38] <= 0
 mccormick1[39]: - u[39] + r[39] <= 0
 mccormick1[40]: - u[40] + r[40] <= 0
 mccormick1[41]: - u[41] + r[41] <= 0
 mccormick1[42]: - u[42] + r[42] <= 0
 mccormick1[43]: - u[43] + r[43] <= 0
 mccormick1[44]: - u[44] + r[44] <= 0
 mccormick1[45]: - u[45] + r[45] <= 0
 mccormick1[46]: - u[46] + r[46] <= 0
 mccormick1[47]: - u[47] + r[47] <= 0
 mccormick1[48]: - u[48] + r[48] <= 0
 mccormick1[49]: - u[49] + r[49] <= 0
 mccormick1[50]: - u[50] + r[50] <= 0
 mccormick1[51]: - u[51] + r[51] <= 0
 mccormick1[52]: - u[52] + r[52] <= 0
 mccormick1[53]: - u[53] + r[53] <= 0
 mccormick1[54]: - u[54] + r[54] <= 0
 mccormick1[55]: - u[55] + r[55] <= 0
 mccormick1[56]: - u[56] + r[56] <= 0
 mccormick1[57]: - u[57] + r[57] <= 0
 mccormick1[58]: - u[58] + r[58] <= 0
 mccormick1[59]: - u[59] + r[59] <= 0
 mccormick1[60]: - u[60] + r[60] <= 0
 mccormick1[61]: - u[61] + r[61] <= 0
 mccormick1[62]: - u[62] + r[62] <= 0
 mccormick1[63]: - u[63] + r[63] <= 0
 mccormick1[64]: - u[64] + r[64] <= 0
 mccormick1[65]: - u[65] + r[65] <= 0
 mccormick1[66]: - u[66] + r[66] <= 0
 mccormick1[67]: - u[67] + r[67] <= 0
 mccormick1[68]: - u[68] + r[68] <= 0
 mccormick1[69]: - u[69] + r[69] <= 0
 mccormick1[70]: - u[70] + r[70] <= 0
 mccormick1[71]: - u[71] + r[71] <= 0
 mccormick1[72]: - u[72] + r[72] <= 0
 mccormick1[73]: - u[73] + r[73] <= 0
 mccormick1[74]: - u[74] + r[74] <= 0
 mccormick1[75]: - u[75] + r[75] <= 0
 mccormick1[76]: - u[76] + r[76] <= 0
 mccormick1[77]: - u[77] + r[77] <= 0
 mccormick1[78]: - u[78] + r[78] <= 0
 mccormick1[79]: - u[79] + r[79] <= 0
 mccormick1[80]: - u[80] + r[80] <= 0
 mccormick1[81]: - u[81] + r[81] <= 0
 mccormick1[82]: - u[82] + r[82] <= 0
 mccormick1[83]: - u[83] + r[83] <= 0
 mccormick1[84]: - u[84] + r[84] <= 0
 mccormick1[85]: - u[85] + r[85] <= 0
 mccormick1[86]: - u[86] + r[86] <= 0
 mccormick1[87]: - u[87] + r[87] <= 0
 mccormick1[88]: - u[88] + r[88] <= 0
 mccormick1[89]: - u[89] + r[89] <= 0
 mccormick1[90]: - u[90] + r[90] <= 0
 mccormick1[91]: - u[91] + r[91] <= 0
 mccormick1[92]: - u[92] + r[92] <= 0
 mccormick1[93]: - u[93] + r[93] <= 0
 mccormick1[94]: - u[94] + r[94] <= 0
 mccormick1[95]: - u[95] + r[95] <= 0
 mccormick1[96]: - u[96] + r[96] <= 0
 mccormick1[97]: - u[97] + r[97] <= 0
 mccormick1[98]: - u[98] + r[98] <= 0
 mccormick1[99]: - u[99] + r[99] <= 0
 mccormick1[100]: - u[100] + r[100] <= 0
 mccormick1[101]: - u[101] + r[101] <= 0
 mccormick1[102]: - u[102] + r[102] <= 0
 mccormick1[103]: - u[103] + r[103] <= 0
 mccormick1[104]: - u[104] + r[104] <= 0
 mccormick1[105]: - u[105] + r[105] <= 0
 mccormick1[106]: - u[106] + r[106] <= 0
 mccormick1[107]: - u[107] + r[107] <= 0
 mccormick1[108]: - u[108] + r[108] <= 0
 mccormick1[109]: - u[109] + r[109] <= 0
 mccormick1[110]: - u[110] + r[110] <= 0
 mccormick1[111]: - u[111] + r[111] <= 0
 mccormick1[112]: - u[112] + r[112] <= 0
 mccormick1[113]: - u[113] + r[113] <= 0
 mccormick1[114]: - u[114] + r[114] <= 0
 mccormick1[115]: - u[115] + r[115] <= 0
 mccormick1[116]: - u[116] + r[116] <= 0
 mccormick1[117]: - u[117] + r[117] <= 0
 mccormick1[118]: - u[118] + r[118] <= 0
 mccormick1[119]: - u[119] + r[119] <= 0
 mccormick2[0]: - x[0] + r[0] <= 0
 mccormick2[1]: - x[1] + r[1] <= 0
 mccormick2[2]: - x[2] + r[2] <= 0
 mccormick2[3]: - x[3] + r[3] <= 0
 mccormick2[4]: - x[4] + r[4] <= 0
 mccormick2[5]: - x[5] + r[5] <= 0
 mccormick2[6]: - x[6] + r[6] <= 0
 mccormick2[7]: - x[7] + r[7] <= 0
 mccormick2[8]: - x[8] + r[8] <= 0
 mccormick2[9]: - x[9] + r[9] <= 0
 mccormick2[10]: - x[10] + r[10] <= 0
 mccormick2[11]: - x[11] + r[11] <= 0
 mccormick2[12]: - x[12] + r[12] <= 0
 mccormick2[13]: - x[13] + r[13] <= 0
 mccormick2[14]: - x[14] + r[14] <= 0
 mccormick2[15]: - x[15] + r[15] <= 0
 mccormick2[16]: - x[16] + r[16] <= 0
 mccormick2[17]: - x[17] + r[17] <= 0
 mccormick2[18]: - x[18] + r[18] <= 0
 mccormick2[19]: - x[19] + r[19] <= 0
 mccormick2[20]: - x[20] + r[20] <= 0
 mccormick2[21]: - x[21] + r[21] <= 0
 mccormick2[22]: - x[22] + r[22] <= 0
 mccormick2[23]: - x[23] + r[23] <= 0
 mccormick2[24]: - x[24] + r[24] <= 0
 mccormick2[25]: - x[25] + r[25] <= 0
 mccormick2[26]: - x[26] + r[26] <= 0
 mccormick2[27]: - x[27] + r[27] <= 0
 mccormick2[28]: - x[28] + r[28] <= 0
 mccormick2[29]: - x[29] + r[29] <= 0
 mccormick2[30]: - x[30] + r[30] <= 0
 mccormick2[31]: - x[31] + r[31] <= 0
 mccormick2[32]: - x[32] + r[32] <= 0
 mccormick2[33]: - x[33] + r[33] <= 0
 mccormick2[34]: - x[34] + r[34] <= 0
 mccormick2[35]: - x[35] + r[35] <= 0
 mccormick2[36]: - x[36] + r[36] <= 0
 mccormick2[37]: - x[37] + r[37] <= 0
 mccormick2[38]: - x[38] + r[38] <= 0
 mccormick2[39]: - x[39] + r[39] <= 0
 mccormick2[40]: - x[40] + r[40] <= 0
 mccormick2[41]: - x[41] + r[41] <= 0
 mccormick2[42]: - x[42] + r[42] <= 0
 mccormick2[43]: - x[43] + r[43] <= 0
 mccormick2[44]: - x[44] + r[44] <= 0
 mccormick2[45]: - x[45] + r[45] <= 0
 mccormick2[46]: - x[46] + r[46] <= 0
 mccormick2[47]: - x[47] + r[47] <= 0
 mccormick2[48]: - x[48] + r[48] <= 0
 mccormick2[49]: - x[49] + r[49] <= 0
 mccormick2[50]: - x[50] + r[50] <= 0
 mccormick2[51]: - x[51] + r[51] <= 0
 mccormick2[52]: - x[52] + r[52] <= 0
 mccormick2[53]: - x[53] + r[53] <= 0
 mccormick2[54]: - x[54] + r[54] <= 0
 mccormick2[55]: - x[55] + r[55] <= 0
 mccormick2[56]: - x[56] + r[56] <= 0
 mccormick2[57]: - x[57] + r[57] <= 0
 mccormick2[58]: - x[58] + r[58] <= 0
 mccormick2[59]: - x[59] + r[59] <= 0
 mccormick2[60]: - x[60] + r[60] <= 0
 mccormick2[61]: - x[61] + r[61] <= 0
 mccormick2[62]: - x[62] + r[62] <= 0
 mccormick2[63]: - x[63] + r[63] <= 0
 mccormick2[64]: - x[64] + r[64] <= 0
 mccormick2[65]: - x[65] + r[65] <= 0
 mccormick2[66]: - x[66] + r[66] <= 0
 mccormick2[67]: - x[67] + r[67] <= 0
 mccormick2[68]: - x[68] + r[68] <= 0
 mccormick2[69]: - x[69] + r[69] <= 0
 mccormick2[70]: - x[70] + r[70] <= 0
 mccormick2[71]: - x[71] + r[71] <= 0
 mccormick2[72]: - x[72] + r[72] <= 0
 mccormick2[73]: - x[73] + r[73] <= 0
 mccormick2[74]: - x[74] + r[74] <= 0
 mccormick2[75]: - x[75] + r[75] <= 0
 mccormick2[76]: - x[76] + r[76] <= 0
 mccormick2[77]: - x[77] + r[77] <= 0
 mccormick2[78]: - x[78] + r[78] <= 0
 mccormick2[79]: - x[79] + r[79] <= 0
 mccormick2[80]: - x[80] + r[80] <= 0
 mccormick2[81]: - x[81] + r[81] <= 0
 mccormick2[82]: - x[82] + r[82] <= 0
 mccormick2[83]: - x[83] + r[83] <= 0
 mccormick2[84]: - x[84] + r[84] <= 0
 mccormick2[85]: - x[85] + r[85] <= 0
 mccormick2[86]: - x[86] + r[86] <= 0
 mccormick2[87]: - x[87] + r[87] <= 0
 mccormick2[88]: - x[88] + r[88] <= 0
 mccormick2[89]: - x[89] + r[89] <= 0
 mccormick2[90]: - x[90] + r[90] <= 0
 mccormick2[91]: - x[91] + r[91] <= 0
 mccormick2[92]: - x[92] + r[92] <= 0
 mccormick2[93]: - x[93] + r[93] <= 0
 mccormick2[94]: - x[94] + r[94] <= 0
 mccormick2[95]: - x[95] + r[95] <= 0
 mccormick2[96]: - x[96] + r[96] <= 0
 mccormick2[97]: - x[97] + r[97] <= 0
 mccormick2[98]: - x[98] + r[98] <= 0
 mccormick2[99]: - x[99] + r[99] <= 0
 mccormick2[100]: - x[100] + r[100] <= 0
 mccormick2[101]: - x[101] + r[101] <= 0
 mccormick2[102]: - x[102] + r[102] <= 0
 mccormick2[103]: - x[103] + r[103] <= 0
 mccormick2[104]: - x[104] + r[104] <= 0
 mccormick2[105]: - x[105] + r[105] <= 0
 mccormick2[106]: - x[106] + r[106] <= 0
 mccormick2[107]: - x[107] + r[107] <= 0
 mccormick2[108]: - x[108] + r[108] <= 0
 mccormick2[109]: - x[109] + r[109] <= 0
 mccormick2[110]: - x[110] + r[110] <= 0
 mccormick2[111]: - x[111] + r[111] <= 0
 mccormick2[112]: - x[112] + r[112] <= 0
 mccormick2[113]: - x[113] + r[113] <= 0
 mccormick2[114]: - x[114] + r[114] <= 0
 mccormick2[115]: - x[115] + r[115] <= 0
 mccormick2[116]: - x[116] + r[116] <= 0
 mccormick2[117]: - x[117] + r[117] <= 0
 mccormick2[118]: - x[118] + r[118] <= 0
 mccormick2[119]: - x[119] + r[119] <= 0
 mccormick3[0]: x[0] + u[0] - r[0] <= 1
 mccormick3[1]: x[1] + u[1] - r[1] <= 1
 mccormick3[2]: x[2] + u[2] - r[2] <= 1
 mccormick3[3]: x[3] + u[3] - r[3] <= 1
 mccormick3[4]: x[4] + u[4] - r[4] <= 1
 mccormick3[5]: x[5] + u[5] - r[5] <= 1
 mccormick3[6]: x[6] + u[6] - r[6] <= 1
 mccormick3[7]: x[7] + u[7] - r[7] <= 1
 mccormick3[8]: x[8] + u[8] - r[8] <= 1
 mccormick3[9]: x[9] + u[9] - r[9] <= 1
 mccormick3[10]: x[10] + u[10] - r[10] <= 1
 mccormick3[11]: x[11] + u[11] - r[11] <= 1
 mccormick3[12]: x[12] + u[12] - r[12] <= 1
 mccormick3[13]: x[13] + u[13] - r[13] <= 1
 mccormick3[14]: x[14] + u[14] - r[14] <= 1
 mccormick3[15]: x[15] + u[15] - r[15] <= 1
 mccormick3[16]: x[16] + u[16] - r[16] <= 1
 mccormick3[17]: x[17] + u[17] - r[17] <= 1
 mccormick3[18]: x[18] + u[18] - r[18] <= 1
 mccormick3[19]: x[19] + u[19] - r[19] <= 1
 mccormick3[20]: x[20] + u[20] - r[20] <= 1
 mccormick3[21]: x[21] + u[21] - r[21] <= 1
 mccormick3[22]: x[22] + u[22] - r[22] <= 1
 mccormick3[23]: x[23] + u[23] - r[23] <= 1
 mccormick3[24]: x[24] + u[24] - r[24] <= 1
 mccormick3[25]: x[25] + u[25] - r[25] <= 1
 mccormick3[26]: x[26] + u[26] - r[26] <= 1
 mccormick3[27]: x[27] + u[27] - r[27] <= 1
 mccormick3[28]: x[28] + u[28] - r[28] <= 1
 mccormick3[29]: x[29] + u[29] - r[29] <= 1
 mccormick3[30]: x[30] + u[30] - r[30] <= 1
 mccormick3[31]: x[31] + u[31] - r[31] <= 1
 mccormick3[32]: x[32] + u[32] - r[32] <= 1
 mccormick3[33]: x[33] + u[33] - r[33] <= 1
 mccormick3[34]: x[34] + u[34] - r[34] <= 1
 mccormick3[35]: x[35] + u[35] - r[35] <= 1
 mccormick3[36]: x[36] + u[36] - r[36] <= 1
 mccormick3[37]: x[37] + u[37] - r[37] <= 1
 mccormick3[38]: x[38] + u[38] - r[38] <= 1
 mccormick3[39]: x[39] + u[39] - r[39] <= 1
 mccormick3[40]: x[40] + u[40] - r[40] <= 1
 mccormick3[41]: x[41] + u[41] - r[41] <= 1
 mccormick3[42]: x[42] + u[42] - r[42] <= 1
 mccormick3[43]: x[43] + u[43] - r[43] <= 1
 mccormick3[44]: x[44] + u[44] - r[44] <= 1
 mccormick3[45]: x[45] + u[45] - r[45] <= 1
 mccormick3[46]: x[46] + u[46] - r[46] <= 1
 mccormick3[47]: x[47] + u[47] - r[47] <= 1
 mccormick3[48]: x[48] + u[48] - r[48] <= 1
 mccormick3[49]: x[49] + u[49] - r[49] <= 1
 mccormick3[50]: x[50] + u[50] - r[50] <= 1
 mccormick3[51]: x[51] + u[51] - r[51] <= 1
 mccormick3[52]: x[52] + u[52] - r[52] <= 1
 mccormick3[53]: x[53] + u[53] - r[53] <= 1
 mccormick3[54]: x[54] + u[54] - r[54] <= 1
 mccormick3[55]: x[55] + u[55] - r[55] <= 1
 mccormick3[56]: x[56] + u[56] - r[56] <= 1
 mccormick3[57]: x[57] + u[57] - r[57] <= 1
 mccormick3[58]: x[58] + u[58] - r[58] <= 1
 mccormick3[59]: x[59] + u[59] - r[59] <= 1
 mccormick3[60]: x[60] + u[60] - r[60] <= 1
 mccormick3[61]: x[61] + u[61] - r[61] <= 1
 mccormick3[62]: x[62] + u[62] - r[62] <= 1
 mccormick3[63]: x[63] + u[63] - r[63] <= 1
 mccormick3[64]: x[64] + u[64] - r[64] <= 1
 mccormick3[65]: x[65] + u[65] - r[65] <= 1
 mccormick3[66]: x[66] + u[66] - r[66] <= 1
 mccormick3[67]: x[67] + u[67] - r[67] <= 1
 mccormick3[68]: x[68] + u[68] - r[68] <= 1
 mccormick3[69]: x[69] + u[69] - r[69] <= 1
 mccormick3[70]: x[70] + u[70] - r[70] <= 1
 mccormick3[71]: x[71] + u[71] - r[71] <= 1
 mccormick3[72]: x[72] + u[72] - r[72] <= 1
 mccormick3[73]: x[73] + u[73] - r[73] <= 1
 mccormick3[74]: x[74] + u[74] - r[74] <= 1
 mccormick3[75]: x[75] + u[75] - r[75] <= 1
 mccormick3[76]: x[76] + u[76] - r[76] <= 1
 mccormick3[77]: x[77] + u[77] - r[77] <= 1
 mccormick3[78]: x[78] + u[78] - r[78] <= 1
 mccormick3[79]: x[79] + u[79] - r[79] <= 1
 mccormick3[80]: x[80] + u[80] - r[80] <= 1
 mccormick3[81]: x[81] + u[81] - r[81] <= 1
 mccormick3[82]: x[82] + u[82] - r[82] <= 1
 mccormick3[83]: x[83] + u[83] - r[83] <= 1
 mccormick3[84]: x[84] + u[84] - r[84] <= 1
 mccormick3[85]: x[85] + u[85] - r[85] <= 1
 mccormick3[86]: x[86] + u[86] - r[86] <= 1
 mccormick3[87]: x[87] + u[87] - r[87] <= 1
 mccormick3[88]: x[88] + u[88] - r[88] <= 1
 mccormick3[89]: x[89] + u[89] - r[89] <= 1
 mccormick3[90]: x[90] + u[90] - r[90] <= 1
 mccormick3[91]: x[91] + u[91] - r[91] <= 1
 mccormick3[92]: x[92] + u[92] - r[92] <= 1
 mccormick3[93]: x[93] + u[93] - r[93] <= 1
 mccormick3[94]: x[94] + u[94] - r[94] <= 1
 mccormick3[95]: x[95] + u[95] - r[95] <= 1
 mccormick3[96]: x[96] + u[96] - r[96] <= 1
 mccormick3[97]: x[97] + u[97] - r[97] <= 1
 mccormick3[98]: x[98] + u[98] - r[98] <= 1
 mccormick3[99]: x[99] + u[99] - r[99] <= 1
 mccormick3[100]: x[100] + u[100] - r[100] <= 1
 mccormick3[101]: x[101] + u[101] - r[101] <= 1
 mccormick3[102]: x[102] + u[102] - r[102] <= 1
 mccormick3[103]: x[103] + u[103] - r[103] <= 1
 mccormick3[104]: x[104] + u[104] - r[104] <= 1
 mccormick3[105]: x[105] + u[105] - r[105] <= 1
 mccormick3[106]: x[106] + u[106] - r[106] <= 1
 mccormick3[107]: x[107] + u[107] - r[107] <= 1
 mccormick3[108]: x[108] + u[108] - r[108] <= 1
 mccormick3[109]: x[109] + u[109] - r[109] <= 1
 mccormick3[110]: x[110] + u[110] - r[110] <= 1
 mccormick3[111]: x[111] + u[111] - r[111] <= 1
 mccormick3[112]: x[112] + u[112] - r[112] <= 1
 mccormick3[113]: x[113] + u[113] - r[113] <= 1
 mccormick3[114]: x[114] + u[114] - r[114] <= 1
 mccormick3[115]: x[115] + u[115] - r[115] <= 1
 mccormick3[116]: x[116] + u[116] - r[116] <= 1
 mccormick3[117]: x[117] + u[117] - r[117] <= 1
 mccormick3[118]: x[118] + u[118] - r[118] <= 1
 mccormick3[119]: x[119] + u[119] - r[119] <= 1
Bounds
Binaries
 x[0] x[1] x[2] x[3] x[4] x[5] x[6] x[7] x[8] x[9] x[10] x[11] x[12] x[13]
 x[14] x[15] x[16] x[17] x[18] x[19] x[20] x[21] x[22] x[23] x[24] x[25]
 x[26] x[27] x[28] x[29] x[30] x[31] x[32] x[33] x[34] x[35] x[36] x[37]
 x[38] x[39] x[40] x[41] x[42] x[43] x[44] x[45] x[46] x[47] x[48] x[49]
 x[50] x[51] x[52] x[53] x[54] x[55] x[56] x[57] x[58] x[59] x[60] x[61]
 x[62] x[63] x[64] x[65] x[66] x[67] x[68] x[69] x[70] x[71] x[72] x[73]
 x[74] x[75] x[76] x[77] x[78] x[79] x[80] x[81] x[82] x[83] x[84] x[85]
 x[86] x[87] x[88] x[89] x[90] x[91] x[92] x[93] x[94] x[95] x[96] x[97]
 x[98] x[99] x[100] x[101] x[102] x[103] x[104] x[105] x[106] x[107] x[108]
 x[109] x[110] x[111] x[112] x[113] x[114] x[115] x[116] x[117] x[118]
 x[119] y[0] y[1] y[2] y[3] y[4] y[5] y[6] y[7] y[8] y[9] y[10] y[11] y[12]
 y[13] y[14] y[15] y[16] y[17] y[18] y[19] y[20] y[21] y[22] y[23] y[24]
 y[25] y[26] y[27] y[28] y[29] y[30] y[31] y[32] y[33] y[34] y[35] y[36]
 y[37] y[38] y[39] y[40] y[41] y[42] y[43] y[44] y[45] y[46] y[47] y[48]
 y[49] y[50] y[51] y[52] y[53] y[54] y[55] y[56] y[57] y[58] y[59] y[60]
 y[61] y[62] y[63] y[64] y[65] y[66] y[67] y[68] y[69] y[70] y[71] y[72]
 y[73] y[74] y[75] y[76] y[77] y[78] y[79] y[80] y[81] y[82] y[83] y[84]
 y[85] y[86] y[87] y[88] y[89] y[90] y[91] y[92] y[93] y[94] y[95] y[96]
 y[97] y[98] y[99] y[100] y[101] y[102] y[103] y[104] y[105] y[106] y[107]
 y[108] y[109] y[110] y[111] y[112] y[113] y[114] y[115] y[116] y[117]
 y[118] y[119] u[0] u[1] u[2] u[3] u[4] u[5] u[6] u[7] u[8] u[9] u[10]
 u[11] u[12] u[13] u[14] u[15] u[16] u[17] u[18] u[19] u[20] u[21] u[22]
 u[23] u[24] u[25] u[26] u[27] u[28] u[29] u[30] u[31] u[32] u[33] u[34]
 u[35] u[36] u[37] u[38] u[39] u[40] u[41] u[42] u[43] u[44] u[45] u[46]
 u[47] u[48] u[49] u[50] u[51] u[52] u[53] u[54] u[55] u[56] u[57] u[58]
 u[59] u[60] u[61] u[62] u[63] u[64] u[65] u[66] u[67] u[68] u[69] u[70]
 u[71] u[72] u[73] u[74] u[75] u[76] u[77] u[78] u[79] u[80] u[81] u[82]
 u[83] u[84] u[85] u[86] u[87] u[88] u[89] u[90] u[91] u[92] u[93] u[94]
 u[95] u[96] u[97] u[98] u[99] u[100] u[101] u[102] u[103] u[104] u[105]
 u[106] u[107] u[108] u[109] u[110] u[111] u[112] u[113] u[114] u[115]
 u[116] u[117] u[118] u[119] r[0] r[1] r[2] r[3] r[4] r[5] r[6] r[7] r[8]
 r[9] r[10] r[11] r[12] r[13] r[14] r[15] r[16] r[17] r[18] r[19] r[20]
 r[21] r[22] r[23] r[24] r[25] r[26] r[27] r[28] r[29] r[30] r[31] r[32]
 r[33] r[34] r[35] r[36] r[37] r[38] r[39] r[40] r[41] r[42] r[43] r[44]
 r[45] r[46] r[47] r[48] r[49] r[50] r[51] r[52] r[53] r[54] r[55] r[56]
 r[57] r[58] r[59] r[60] r[61] r[62] r[63] r[64] r[65] r[66] r[67] r[68]
 r[69] r[70] r[71] r[72] r[73] r[74] r[75] r[76] r[77] r[78] r[79] r[80]
 r[81] r[82] r[83] r[84] r[85] r[86] r[87] r[88] r[89] r[90] r[91] r[92]
 r[93] r[94] r[95] r[96] r[97] r[98] r[99] r[100] r[101] r[102] r[103]
 r[104] r[105] r[106] r[107] r[108] r[109] r[110] r[111] r[112] r[113]
 r[114] r[115] r[116] r[117] r[118] r[119]
End
