\ Model sp_11_3
\ LP format - for model browsing. Use MPS format to capture full model detail.
\ Signature: 0x112138f5eab728a3
Minimize
  35 y[0,1] + 28.3 y[0,2] + 51.79 y[0,3] + 26.25 y[0,4] + 51.09 y[0,5]
   + 38.05 y[0,6] + 42.3 y[0,7] + 69.3 y[0,8] + 63.64 y[0,9] + 25.5 y[0,10]
   + 35 y[1,0] + 52.35 y[1,2] + 35.51 y[1,3] + 60.42 y[1,4] + 63.6 y[1,5]
   + 31.06 y[1,6] + 67.07 y[1,7] + 35 y[1,8] + 29.41 y[1,9] + 45.04 y[1,10]
   + 28.3 y[2,0] + 52.35 y[2,1] + 48.84 y[2,3] + 23.02 y[2,4]
   + 25.63 y[2,5] + 34.71 y[2,6] + 63.95 y[2,7] + 8.06 y[2,10]
   + 51.79 y[3,0] + 35.51 y[3,1] + 48.84 y[3,2] + 68.1 y[3,4]
   + 43.68 y[3,5] + 14.76 y[3,6] + 40.05 y[3,8] + 36.5 y[3,9]
   + 41.23 y[3,10] + 26.25 y[4,0] + 60.42 y[4,1] + 23.02 y[4,2]
   + 68.1 y[4,3] + 47.68 y[4,5] + 53.34 y[4,6] + 45.34 y[4,7]
   + 28.16 y[4,10] + 51.09 y[5,0] + 63.6 y[5,1] + 25.63 y[5,2]
   + 43.68 y[5,3] + 47.68 y[5,4] + 35.01 y[5,6] + 25.61 y[5,10]
   + 38.05 y[6,0] + 31.06 y[6,1] + 34.71 y[6,2] + 14.76 y[6,3]
   + 53.34 y[6,4] + 35.01 y[6,5] + 48.27 y[6,8] + 43.57 y[6,9]
   + 26.87 y[6,10] + 42.3 y[7,0] + 67.07 y[7,1] + 63.95 y[7,2]
   + 45.34 y[7,4] + 64.85 y[7,10] + 69.3 y[8,0] + 35 y[8,1] + 40.05 y[8,3]
   + 48.27 y[8,6] + 5.66 y[8,9] + 72.5 y[8,10] + 63.64 y[9,0]
   + 29.41 y[9,1] + 36.5 y[9,3] + 43.57 y[9,6] + 5.66 y[9,8]
   + 67.23 y[9,10] + 25.5 y[10,0] + 45.04 y[10,1] + 8.06 y[10,2]
   + 41.23 y[10,3] + 28.16 y[10,4] + 25.61 y[10,5] + 26.87 y[10,6]
   + 64.85 y[10,7] + 72.5 y[10,8] + 67.23 y[10,9] + 2.02 x[0,1]
   + 1.53 x[0,2] + 1.17 x[0,3] + 1.6 x[0,4] + 2.71 x[0,5] + 0.55 x[0,6]
   + 1.46 x[0,7] + 3.61 x[0,8] + 4.16 x[0,9] + 0.52 x[0,10] + 0.88 x[1,0]
   + 2.96 x[1,2] + 2.41 x[1,3] + 0.94 x[1,4] + 0.98 x[1,5] + 1.71 x[1,6]
   + 1.95 x[1,7] + 1.16 x[1,8] + 1.84 x[1,9] + 2.47 x[1,10] + 1.4 x[2,0]
   + 3.25 x[2,1] + 2.63 x[2,3] + 1.35 x[2,4] + 1.25 x[2,5] + 1.58 x[2,6]
   + 0.87 x[2,7] + 0.52 x[2,10] + 3.35 x[3,0] + 1.1 x[3,1] + 2.32 x[3,2]
   + 0.75 x[3,4] + 1.75 x[3,5] + 0.7 x[3,6] + 1.11 x[3,8] + 1.27 x[3,9]
   + 2.48 x[3,10] + 0.49 x[4,0] + 2.26 x[4,1] + 0.35 x[4,2] + 2.25 x[4,3]
   + 3 x[4,5] + 2.49 x[4,6] + 0.53 x[4,7] + 1.73 x[4,10] + 2.53 x[5,0]
   + 2.62 x[5,1] + 0.7 x[5,2] + 1.23 x[5,3] + x[5,4] + 1.66 x[5,6]
   + 0.33 x[5,10] + 2.54 x[6,0] + 0.5 x[6,1] + 1.65 x[6,2] + 0.66 x[6,3]
   + 1.69 x[6,4] + 0.93 x[6,5] + 1.75 x[6,8] + 1.3 x[6,9] + 1.84 x[6,10]
   + 2.06 x[7,0] + 2.76 x[7,1] + 3.18 x[7,2] + 1.8 x[7,4] + 1.23 x[7,10]
   + 0.79 x[8,0] + 2.39 x[8,1] + 2.43 x[8,3] + 0.76 x[8,6] + 0.26 x[8,9]
   + 4.14 x[8,10] + 4.05 x[9,0] + 0.41 x[9,1] + 0.65 x[9,3] + 1.46 x[9,6]
   + 0.26 x[9,8] + 1.01 x[9,10] + 1.32 x[10,0] + 2.49 x[10,1] + 0.3 x[10,2]
   + 2.51 x[10,3] + 0.94 x[10,4] + 1.54 x[10,5] + 0.88 x[10,6]
   + 2.21 x[10,7] + 2.37 x[10,8] + 3.54 x[10,9] + 3.5 r[0,1] + 2.83 r[0,2]
   + 5.179 r[0,3] + 2.625 r[0,4] + 5.109 r[0,5] + 3.805 r[0,6]
   + 4.23 r[0,7] + 6.93 r[0,8] + 6.364 r[0,9] + 2.55 r[0,10] + 3.5 r[1,0]
   + 5.235 r[1,2] + 3.551 r[1,3] + 6.042 r[1,4] + 6.36 r[1,5]
   + 3.106 r[1,6] + 6.707 r[1,7] + 3.5 r[1,8] + 2.941 r[1,9]
   + 4.504 r[1,10] + 2.83 r[2,0] + 5.235 r[2,1] + 4.884 r[2,3]
   + 2.302 r[2,4] + 2.563 r[2,5] + 3.471 r[2,6] + 6.395 r[2,7]
   + 0.806 r[2,10] + 5.179 r[3,0] + 3.551 r[3,1] + 4.884 r[3,2]
   + 6.81 r[3,4] + 4.368 r[3,5] + 1.476 r[3,6] + 4.005 r[3,8] + 3.65 r[3,9]
   + 4.123 r[3,10] + 2.625 r[4,0] + 6.042 r[4,1] + 2.302 r[4,2]
   + 6.81 r[4,3] + 4.768 r[4,5] + 5.334 r[4,6] + 4.534 r[4,7]
   + 2.816 r[4,10] + 5.109 r[5,0] + 6.36 r[5,1] + 2.563 r[5,2]
   + 4.368 r[5,3] + 4.768 r[5,4] + 3.501 r[5,6] + 2.561 r[5,10]
   + 3.805 r[6,0] + 3.106 r[6,1] + 3.471 r[6,2] + 1.476 r[6,3]
   + 5.334 r[6,4] + 3.501 r[6,5] + 4.827 r[6,8] + 4.357 r[6,9]
   + 2.687 r[6,10] + 4.23 r[7,0] + 6.707 r[7,1] + 6.395 r[7,2]
   + 4.534 r[7,4] + 6.485 r[7,10] + 6.93 r[8,0] + 3.5 r[8,1] + 4.005 r[8,3]
   + 4.827 r[8,6] + 0.566 r[8,9] + 7.25 r[8,10] + 6.364 r[9,0]
   + 2.941 r[9,1] + 3.65 r[9,3] + 4.357 r[9,6] + 0.566 r[9,8]
   + 6.723 r[9,10] + 2.55 r[10,0] + 4.504 r[10,1] + 0.806 r[10,2]
   + 4.123 r[10,3] + 2.816 r[10,4] + 2.561 r[10,5] + 2.687 r[10,6]
   + 6.485 r[10,7] + 7.25 r[10,8] + 6.723 r[10,9]
Subject To
 flow_cons_inner_nodes[0]: - y[0,1] - y[0,2] - y[0,3] - y[0,4] - y[0,5]
   - y[0,6] - y[0,7] - y[0,8] - y[0,9] - y[0,10] + y[1,0] + y[2,0] + y[3,0]
   + y[4,0] + y[5,0] + y[6,0] + y[7,0] + y[8,0] + y[9,0] + y[10,0] = 0
 flow_cons_inner_nodes[1]: y[0,1] - y[1,0] - y[1,2] - y[1,3] - y[1,4]
   - y[1,5] - y[1,6] - y[1,7] - y[1,8] - y[1,9] - y[1,10] + y[2,1] + y[3,1]
   + y[4,1] + y[5,1] + y[6,1] + y[7,1] + y[8,1] + y[9,1] + y[10,1] = 0
 flow_cons_inner_nodes[2]: y[0,2] + y[1,2] - y[2,0] - y[2,1] - y[2,3]
   - y[2,4] - y[2,5] - y[2,6] - y[2,7] - y[2,10] + y[3,2] + y[4,2] + y[5,2]
   + y[6,2] + y[7,2] + y[10,2] = 0
 flow_cons_inner_nodes[3]: y[0,3] + y[1,3] + y[2,3] - y[3,0] - y[3,1]
   - y[3,2] - y[3,4] - y[3,5] - y[3,6] - y[3,8] - y[3,9] - y[3,10] + y[4,3]
   + y[5,3] + y[6,3] + y[8,3] + y[9,3] + y[10,3] = 0
 flow_cons_inner_nodes[4]: y[0,4] + y[1,4] + y[2,4] + y[3,4] - y[4,0]
   - y[4,1] - y[4,2] - y[4,3] - y[4,5] - y[4,6] - y[4,7] - y[4,10] + y[5,4]
   + y[6,4] + y[7,4] + y[10,4] = 0
 flow_cons_inner_nodes[5]: y[0,5] + y[1,5] + y[2,5] + y[3,5] + y[4,5]
   - y[5,0] - y[5,1] - y[5,2] - y[5,3] - y[5,4] - y[5,6] - y[5,10] + y[6,5]
   + y[10,5] = 0
 flow_cons_inner_nodes[6]: y[0,6] + y[1,6] + y[2,6] + y[3,6] + y[4,6]
   + y[5,6] - y[6,0] - y[6,1] - y[6,2] - y[6,3] - y[6,4] - y[6,5] - y[6,8]
   - y[6,9] - y[6,10] + y[8,6] + y[9,6] + y[10,6] = 0
 flow_cons_inner_nodes[9]: y[0,9] + y[1,9] + y[3,9] + y[6,9] + y[8,9]
   - y[9,0] - y[9,1] - y[9,3] - y[9,6] - y[9,8] - y[9,10] + y[10,9] = 0
 flow_cons_inner_nodes[10]: y[0,10] + y[1,10] + y[2,10] + y[3,10] + y[4,10]
   + y[5,10] + y[6,10] + y[7,10] + y[8,10] + y[9,10] - y[10,0] - y[10,1]
   - y[10,2] - y[10,3] - y[10,4] - y[10,5] - y[10,6] - y[10,7] - y[10,8]
   - y[10,9] = 0
 flow_cons_source: - y[0,7] - y[1,7] - y[2,7] - y[4,7] + y[7,0] + y[7,1]
   + y[7,2] + y[7,4] + y[7,10] - y[10,7] = 1
 flow_cons_target: y[0,8] + y[1,8] + y[3,8] + y[6,8] - y[8,0] - y[8,1]
   - y[8,3] - y[8,6] - y[8,9] - y[8,10] + y[9,8] + y[10,8] = 1
 primal_lower_interdiction[0,1]: x[0,1] + u[0,1] <= 1
 primal_lower_interdiction[0,2]: x[0,2] + u[0,2] <= 1
 primal_lower_interdiction[0,3]: x[0,3] + u[0,3] <= 1
 primal_lower_interdiction[0,4]: x[0,4] + u[0,4] <= 1
 primal_lower_interdiction[0,5]: x[0,5] + u[0,5] <= 1
 primal_lower_interdiction[0,6]: x[0,6] + u[0,6] <= 1
 primal_lower_interdiction[0,7]: x[0,7] + u[0,7] <= 1
 primal_lower_interdiction[0,8]: x[0,8] + u[0,8] <= 1
 primal_lower_interdiction[0,9]: x[0,9] + u[0,9] <= 1
 primal_lower_interdiction[0,10]: x[0,10] + u[0,10] <= 1
 primal_lower_interdiction[1,0]: x[1,0] + u[1,0] <= 1
 primal_lower_interdiction[1,2]: x[1,2] + u[1,2] <= 1
 primal_lower_interdiction[1,3]: x[1,3] + u[1,3] <= 1
 primal_lower_interdiction[1,4]: x[1,4] + u[1,4] <= 1
 primal_lower_interdiction[1,5]: x[1,5] + u[1,5] <= 1
 primal_lower_interdiction[1,6]: x[1,6] + u[1,6] <= 1
 primal_lower_interdiction[1,7]: x[1,7] + u[1,7] <= 1
 primal_lower_interdiction[1,8]: x[1,8] + u[1,8] <= 1
 primal_lower_interdiction[1,9]: x[1,9] + u[1,9] <= 1
 primal_lower_interdiction[1,10]: x[1,10] + u[1,10] <= 1
 primal_lower_interdiction[2,0]: x[2,0] + u[2,0] <= 1
 primal_lower_interdiction[2,1]: x[2,1] + u[2,1] <= 1
 primal_lower_interdiction[2,3]: x[2,3] + u[2,3] <= 1
 primal_lower_interdiction[2,4]: x[2,4] + u[2,4] <= 1
 primal_lower_interdiction[2,5]: x[2,5] + u[2,5] <= 1
 primal_lower_interdiction[2,6]: x[2,6] + u[2,6] <= 1
 primal_lower_interdiction[2,7]: x[2,7] + u[2,7] <= 1
 primal_lower_interdiction[2,10]: x[2,10] + u[2,10] <= 1
 primal_lower_interdiction[3,0]: x[3,0] + u[3,0] <= 1
 primal_lower_interdiction[3,1]: x[3,1] + u[3,1] <= 1
 primal_lower_interdiction[3,2]: x[3,2] + u[3,2] <= 1
 primal_lower_interdiction[3,4]: x[3,4] + u[3,4] <= 1
 primal_lower_interdiction[3,5]: x[3,5] + u[3,5] <= 1
 primal_lower_interdiction[3,6]: x[3,6] + u[3,6] <= 1
 primal_lower_interdiction[3,8]: x[3,8] + u[3,8] <= 1
 primal_lower_interdiction[3,9]: x[3,9] + u[3,9] <= 1
 primal_lower_interdiction[3,10]: x[3,10] + u[3,10] <= 1
 primal_lower_interdiction[4,0]: x[4,0] + u[4,0] <= 1
 primal_lower_interdiction[4,1]: x[4,1] + u[4,1] <= 1
 primal_lower_interdiction[4,2]: x[4,2] + u[4,2] <= 1
 primal_lower_interdiction[4,3]: x[4,3] + u[4,3] <= 1
 primal_lower_interdiction[4,5]: x[4,5] + u[4,5] <= 1
 primal_lower_interdiction[4,6]: x[4,6] + u[4,6] <= 1
 primal_lower_interdiction[4,7]: x[4,7] + u[4,7] <= 1
 primal_lower_interdiction[4,10]: x[4,10] + u[4,10] <= 1
 primal_lower_interdiction[5,0]: x[5,0] + u[5,0] <= 1
 primal_lower_interdiction[5,1]: x[5,1] + u[5,1] <= 1
 primal_lower_interdiction[5,2]: x[5,2] + u[5,2] <= 1
 primal_lower_interdiction[5,3]: x[5,3] + u[5,3] <= 1
 primal_lower_interdiction[5,4]: x[5,4] + u[5,4] <= 1
 primal_lower_interdiction[5,6]: x[5,6] + u[5,6] <= 1
 primal_lower_interdiction[5,10]: x[5,10] + u[5,10] <= 1
 primal_lower_interdiction[6,0]: x[6,0] + u[6,0] <= 1
 primal_lower_interdiction[6,1]: x[6,1] + u[6,1] <= 1
 primal_lower_interdiction[6,2]: x[6,2] + u[6,2] <= 1
 primal_lower_interdiction[6,3]: x[6,3] + u[6,3] <= 1
 primal_lower_interdiction[6,4]: x[6,4] + u[6,4] <= 1
 primal_lower_interdiction[6,5]: x[6,5] + u[6,5] <= 1
 primal_lower_interdiction[6,8]: x[6,8] + u[6,8] <= 1
 primal_lower_interdiction[6,9]: x[6,9] + u[6,9] <= 1
 primal_lower_interdiction[6,10]: x[6,10] + u[6,10] <= 1
 primal_lower_interdiction[7,0]: x[7,0] + u[7,0] <= 1
 primal_lower_interdiction[7,1]: x[7,1] + u[7,1] <= 1
 primal_lower_interdiction[7,2]: x[7,2] + u[7,2] <= 1
 primal_lower_interdiction[7,4]: x[7,4] + u[7,4] <= 1
 primal_lower_interdiction[7,10]: x[7,10] + u[7,10] <= 1
 primal_lower_interdiction[8,0]: x[8,0] + u[8,0] <= 1
 primal_lower_interdiction[8,1]: x[8,1] + u[8,1] <= 1
 primal_lower_interdiction[8,3]: x[8,3] + u[8,3] <= 1
 primal_lower_interdiction[8,6]: x[8,6] + u[8,6] <= 1
 primal_lower_interdiction[8,9]: x[8,9] + u[8,9] <= 1
 primal_lower_interdiction[8,10]: x[8,10] + u[8,10] <= 1
 primal_lower_interdiction[9,0]: x[9,0] + u[9,0] <= 1
 primal_lower_interdiction[9,1]: x[9,1] + u[9,1] <= 1
 primal_lower_interdiction[9,3]: x[9,3] + u[9,3] <= 1
 primal_lower_interdiction[9,6]: x[9,6] + u[9,6] <= 1
 primal_lower_interdiction[9,8]: x[9,8] + u[9,8] <= 1
 primal_lower_interdiction[9,10]: x[9,10] + u[9,10] <= 1
 primal_lower_interdiction[10,0]: x[10,0] + u[10,0] <= 1
 primal_lower_interdiction[10,1]: x[10,1] + u[10,1] <= 1
 primal_lower_interdiction[10,2]: x[10,2] + u[10,2] <= 1
 primal_lower_interdiction[10,3]: x[10,3] + u[10,3] <= 1
 primal_lower_interdiction[10,4]: x[10,4] + u[10,4] <= 1
 primal_lower_interdiction[10,5]: x[10,5] + u[10,5] <= 1
 primal_lower_interdiction[10,6]: x[10,6] + u[10,6] <= 1
 primal_lower_interdiction[10,7]: x[10,7] + u[10,7] <= 1
 primal_lower_interdiction[10,8]: x[10,8] + u[10,8] <= 1
 primal_lower_interdiction[10,9]: x[10,9] + u[10,9] <= 1
 primal_lower_budget: u[0,1] + u[0,2] + u[0,3] + u[0,4] + u[0,5] + u[0,6]
   + u[0,7] + u[0,8] + u[0,9] + u[0,10] + u[1,0] + u[1,2] + u[1,3] + u[1,4]
   + u[1,5] + u[1,6] + u[1,7] + u[1,8] + u[1,9] + u[1,10] + u[2,0] + u[2,1]
   + u[2,3] + u[2,4] + u[2,5] + u[2,6] + u[2,7] + u[2,10] + u[3,0] + u[3,1]
   + u[3,2] + u[3,4] + u[3,5] + u[3,6] + u[3,8] + u[3,9] + u[3,10] + u[4,0]
   + u[4,1] + u[4,2] + u[4,3] + u[4,5] + u[4,6] + u[4,7] + u[4,10] + u[5,0]
   + u[5,1] + u[5,2] + u[5,3] + u[5,4] + u[5,6] + u[5,10] + u[6,0] + u[6,1]
   + u[6,2] + u[6,3] + u[6,4] + u[6,5] + u[6,8] + u[6,9] + u[6,10] + u[7,0]
   + u[7,1] + u[7,2] + u[7,4] + u[7,10] + u[8,0] + u[8,1] + u[8,3] + u[8,6]
   + u[8,9] + u[8,10] + u[9,0] + u[9,1] + u[9,3] + u[9,6] + u[9,8]
   + u[9,10] + u[10,0] + u[10,1] + u[10,2] + u[10,3] + u[10,4] + u[10,5]
   + u[10,6] + u[10,7] + u[10,8] + u[10,9] <= 2
 mccormick1[0,1]: - u[0,1] + r[0,1] <= 0
 mccormick1[0,2]: - u[0,2] + r[0,2] <= 0
 mccormick1[0,3]: - u[0,3] + r[0,3] <= 0
 mccormick1[0,4]: - u[0,4] + r[0,4] <= 0
 mccormick1[0,5]: - u[0,5] + r[0,5] <= 0
 mccormick1[0,6]: - u[0,6] + r[0,6] <= 0
 mccormick1[0,7]: - u[0,7] + r[0,7] <= 0
 mccormick1[0,8]: - u[0,8] + r[0,8] <= 0
 mccormick1[0,9]: - u[0,9] + r[0,9] <= 0
 mccormick1[0,10]: - u[0,10] + r[0,10] <= 0
 mccormick1[1,0]: - u[1,0] + r[1,0] <= 0
 mccormick1[1,2]: - u[1,2] + r[1,2] <= 0
 mccormick1[1,3]: - u[1,3] + r[1,3] <= 0
 mccormick1[1,4]: - u[1,4] + r[1,4] <= 0
 mccormick1[1,5]: - u[1,5] + r[1,5] <= 0
 mccormick1[1,6]: - u[1,6] + r[1,6] <= 0
 mccormick1[1,7]: - u[1,7] + r[1,7] <= 0
 mccormick1[1,8]: - u[1,8] + r[1,8] <= 0
 mccormick1[1,9]: - u[1,9] + r[1,9] <= 0
 mccormick1[1,10]: - u[1,10] + r[1,10] <= 0
 mccormick1[2,0]: - u[2,0] + r[2,0] <= 0
 mccormick1[2,1]: - u[2,1] + r[2,1] <= 0
 mccormick1[2,3]: - u[2,3] + r[2,3] <= 0
 mccormick1[2,4]: - u[2,4] + r[2,4] <= 0
 mccormick1[2,5]: - u[2,5] + r[2,5] <= 0
 mccormick1[2,6]: - u[2,6] + r[2,6] <= 0
 mccormick1[2,7]: - u[2,7] + r[2,7] <= 0
 mccormick1[2,10]: - u[2,10] + r[2,10] <= 0
 mccormick1[3,0]: - u[3,0] + r[3,0] <= 0
 mccormick1[3,1]: - u[3,1] + r[3,1] <= 0
 mccormick1[3,2]: - u[3,2] + r[3,2] <= 0
 mccormick1[3,4]: - u[3,4] + r[3,4] <= 0
 mccormick1[3,5]: - u[3,5] + r[3,5] <= 0
 mccormick1[3,6]: - u[3,6] + r[3,6] <= 0
 mccormick1[3,8]: - u[3,8] + r[3,8] <= 0
 mccormick1[3,9]: - u[3,9] + r[3,9] <= 0
 mccormick1[3,10]: - u[3,10] + r[3,10] <= 0
 mccormick1[4,0]: - u[4,0] + r[4,0] <= 0
 mccormick1[4,1]: - u[4,1] + r[4,1] <= 0
 mccormick1[4,2]: - u[4,2] + r[4,2] <= 0
 mccormick1[4,3]: - u[4,3] + r[4,3] <= 0
 mccormick1[4,5]: - u[4,5] + r[4,5] <= 0
 mccormick1[4,6]: - u[4,6] + r[4,6] <= 0
 mccormick1[4,7]: - u[4,7] + r[4,7] <= 0
 mccormick1[4,10]: - u[4,10] + r[4,10] <= 0
 mccormick1[5,0]: - u[5,0] + r[5,0] <= 0
 mccormick1[5,1]: - u[5,1] + r[5,1] <= 0
 mccormick1[5,2]: - u[5,2] + r[5,2] <= 0
 mccormick1[5,3]: - u[5,3] + r[5,3] <= 0
 mccormick1[5,4]: - u[5,4] + r[5,4] <= 0
 mccormick1[5,6]: - u[5,6] + r[5,6] <= 0
 mccormick1[5,10]: - u[5,10] + r[5,10] <= 0
 mccormick1[6,0]: - u[6,0] + r[6,0] <= 0
 mccormick1[6,1]: - u[6,1] + r[6,1] <= 0
 mccormick1[6,2]: - u[6,2] + r[6,2] <= 0
 mccormick1[6,3]: - u[6,3] + r[6,3] <= 0
 mccormick1[6,4]: - u[6,4] + r[6,4] <= 0
 mccormick1[6,5]: - u[6,5] + r[6,5] <= 0
 mccormick1[6,8]: - u[6,8] + r[6,8] <= 0
 mccormick1[6,9]: - u[6,9] + r[6,9] <= 0
 mccormick1[6,10]: - u[6,10] + r[6,10] <= 0
 mccormick1[7,0]: - u[7,0] + r[7,0] <= 0
 mccormick1[7,1]: - u[7,1] + r[7,1] <= 0
 mccormick1[7,2]: - u[7,2] + r[7,2] <= 0
 mccormick1[7,4]: - u[7,4] + r[7,4] <= 0
 mccormick1[7,10]: - u[7,10] + r[7,10] <= 0
 mccormick1[8,0]: - u[8,0] + r[8,0] <= 0
 mccormick1[8,1]: - u[8,1] + r[8,1] <= 0
 mccormick1[8,3]: - u[8,3] + r[8,3] <= 0
 mccormick1[8,6]: - u[8,6] + r[8,6] <= 0
 mccormick1[8,9]: - u[8,9] + r[8,9] <= 0
 mccormick1[8,10]: - u[8,10] + r[8,10] <= 0
 mccormick1[9,0]: - u[9,0] + r[9,0] <= 0
 mccormick1[9,1]: - u[9,1] + r[9,1] <= 0
 mccormick1[9,3]: - u[9,3] + r[9,3] <= 0
 mccormick1[9,6]: - u[9,6] + r[9,6] <= 0
 mccormick1[9,8]: - u[9,8] + r[9,8] <= 0
 mccormick1[9,10]: - u[9,10] + r[9,10] <= 0
 mccormick1[10,0]: - u[10,0] + r[10,0] <= 0
 mccormick1[10,1]: - u[10,1] + r[10,1] <= 0
 mccormick1[10,2]: - u[10,2] + r[10,2] <= 0
 mccormick1[10,3]: - u[10,3] + r[10,3] <= 0
 mccormick1[10,4]: - u[10,4] + r[10,4] <= 0
 mccormick1[10,5]: - u[10,5] + r[10,5] <= 0
 mccormick1[10,6]: - u[10,6] + r[10,6] <= 0
 mccormick1[10,7]: - u[10,7] + r[10,7] <= 0
 mccormick1[10,8]: - u[10,8] + r[10,8] <= 0
 mccormick1[10,9]: - u[10,9] + r[10,9] <= 0
 mccormick2[0,1]: - y[0,1] + r[0,1] <= 0
 mccormick2[0,2]: - y[0,2] + r[0,2] <= 0
 mccormick2[0,3]: - y[0,3] + r[0,3] <= 0
 mccormick2[0,4]: - y[0,4] + r[0,4] <= 0
 mccormick2[0,5]: - y[0,5] + r[0,5] <= 0
 mccormick2[0,6]: - y[0,6] + r[0,6] <= 0
 mccormick2[0,7]: - y[0,7] + r[0,7] <= 0
 mccormick2[0,8]: - y[0,8] + r[0,8] <= 0
 mccormick2[0,9]: - y[0,9] + r[0,9] <= 0
 mccormick2[0,10]: - y[0,10] + r[0,10] <= 0
 mccormick2[1,0]: - y[1,0] + r[1,0] <= 0
 mccormick2[1,2]: - y[1,2] + r[1,2] <= 0
 mccormick2[1,3]: - y[1,3] + r[1,3] <= 0
 mccormick2[1,4]: - y[1,4] + r[1,4] <= 0
 mccormick2[1,5]: - y[1,5] + r[1,5] <= 0
 mccormick2[1,6]: - y[1,6] + r[1,6] <= 0
 mccormick2[1,7]: - y[1,7] + r[1,7] <= 0
 mccormick2[1,8]: - y[1,8] + r[1,8] <= 0
 mccormick2[1,9]: - y[1,9] + r[1,9] <= 0
 mccormick2[1,10]: - y[1,10] + r[1,10] <= 0
 mccormick2[2,0]: - y[2,0] + r[2,0] <= 0
 mccormick2[2,1]: - y[2,1] + r[2,1] <= 0
 mccormick2[2,3]: - y[2,3] + r[2,3] <= 0
 mccormick2[2,4]: - y[2,4] + r[2,4] <= 0
 mccormick2[2,5]: - y[2,5] + r[2,5] <= 0
 mccormick2[2,6]: - y[2,6] + r[2,6] <= 0
 mccormick2[2,7]: - y[2,7] + r[2,7] <= 0
 mccormick2[2,10]: - y[2,10] + r[2,10] <= 0
 mccormick2[3,0]: - y[3,0] + r[3,0] <= 0
 mccormick2[3,1]: - y[3,1] + r[3,1] <= 0
 mccormick2[3,2]: - y[3,2] + r[3,2] <= 0
 mccormick2[3,4]: - y[3,4] + r[3,4] <= 0
 mccormick2[3,5]: - y[3,5] + r[3,5] <= 0
 mccormick2[3,6]: - y[3,6] + r[3,6] <= 0
 mccormick2[3,8]: - y[3,8] + r[3,8] <= 0
 mccormick2[3,9]: - y[3,9] + r[3,9] <= 0
 mccormick2[3,10]: - y[3,10] + r[3,10] <= 0
 mccormick2[4,0]: - y[4,0] + r[4,0] <= 0
 mccormick2[4,1]: - y[4,1] + r[4,1] <= 0
 mccormick2[4,2]: - y[4,2] + r[4,2] <= 0
 mccormick2[4,3]: - y[4,3] + r[4,3] <= 0
 mccormick2[4,5]: - y[4,5] + r[4,5] <= 0
 mccormick2[4,6]: - y[4,6] + r[4,6] <= 0
 mccormick2[4,7]: - y[4,7] + r[4,7] <= 0
 mccormick2[4,10]: - y[4,10] + r[4,10] <= 0
 mccormick2[5,0]: - y[5,0] + r[5,0] <= 0
 mccormick2[5,1]: - y[5,1] + r[5,1] <= 0
 mccormick2[5,2]: - y[5,2] + r[5,2] <= 0
 mccormick2[5,3]: - y[5,3] + r[5,3] <= 0
 mccormick2[5,4]: - y[5,4] + r[5,4] <= 0
 mccormick2[5,6]: - y[5,6] + r[5,6] <= 0
 mccormick2[5,10]: - y[5,10] + r[5,10] <= 0
 mccormick2[6,0]: - y[6,0] + r[6,0] <= 0
 mccormick2[6,1]: - y[6,1] + r[6,1] <= 0
 mccormick2[6,2]: - y[6,2] + r[6,2] <= 0
 mccormick2[6,3]: - y[6,3] + r[6,3] <= 0
 mccormick2[6,4]: - y[6,4] + r[6,4] <= 0
 mccormick2[6,5]: - y[6,5] + r[6,5] <= 0
 mccormick2[6,8]: - y[6,8] + r[6,8] <= 0
 mccormick2[6,9]: - y[6,9] + r[6,9] <= 0
 mccormick2[6,10]: - y[6,10] + r[6,10] <= 0
 mccormick2[7,0]: - y[7,0] + r[7,0] <= 0
 mccormick2[7,1]: - y[7,1] + r[7,1] <= 0
 mccormick2[7,2]: - y[7,2] + r[7,2] <= 0
 mccormick2[7,4]: - y[7,4] + r[7,4] <= 0
 mccormick2[7,10]: - y[7,10] + r[7,10] <= 0
 mccormick2[8,0]: - y[8,0] + r[8,0] <= 0
 mccormick2[8,1]: - y[8,1] + r[8,1] <= 0
 mccormick2[8,3]: - y[8,3] + r[8,3] <= 0
 mccormick2[8,6]: - y[8,6] + r[8,6] <= 0
 mccormick2[8,9]: - y[8,9] + r[8,9] <= 0
 mccormick2[8,10]: - y[8,10] + r[8,10] <= 0
 mccormick2[9,0]: - y[9,0] + r[9,0] <= 0
 mccormick2[9,1]: - y[9,1] + r[9,1] <= 0
 mccormick2[9,3]: - y[9,3] + r[9,3] <= 0
 mccormick2[9,6]: - y[9,6] + r[9,6] <= 0
 mccormick2[9,8]: - y[9,8] + r[9,8] <= 0
 mccormick2[9,10]: - y[9,10] + r[9,10] <= 0
 mccormick2[10,0]: - y[10,0] + r[10,0] <= 0
 mccormick2[10,1]: - y[10,1] + r[10,1] <= 0
 mccormick2[10,2]: - y[10,2] + r[10,2] <= 0
 mccormick2[10,3]: - y[10,3] + r[10,3] <= 0
 mccormick2[10,4]: - y[10,4] + r[10,4] <= 0
 mccormick2[10,5]: - y[10,5] + r[10,5] <= 0
 mccormick2[10,6]: - y[10,6] + r[10,6] <= 0
 mccormick2[10,7]: - y[10,7] + r[10,7] <= 0
 mccormick2[10,8]: - y[10,8] + r[10,8] <= 0
 mccormick2[10,9]: - y[10,9] + r[10,9] <= 0
 mccormick3[0,1]: - y[0,1] - u[0,1] + r[0,1] >= -1
 mccormick3[0,2]: - y[0,2] - u[0,2] + r[0,2] >= -1
 mccormick3[0,3]: - y[0,3] - u[0,3] + r[0,3] >= -1
 mccormick3[0,4]: - y[0,4] - u[0,4] + r[0,4] >= -1
 mccormick3[0,5]: - y[0,5] - u[0,5] + r[0,5] >= -1
 mccormick3[0,6]: - y[0,6] - u[0,6] + r[0,6] >= -1
 mccormick3[0,7]: - y[0,7] - u[0,7] + r[0,7] >= -1
 mccormick3[0,8]: - y[0,8] - u[0,8] + r[0,8] >= -1
 mccormick3[0,9]: - y[0,9] - u[0,9] + r[0,9] >= -1
 mccormick3[0,10]: - y[0,10] - u[0,10] + r[0,10] >= -1
 mccormick3[1,0]: - y[1,0] - u[1,0] + r[1,0] >= -1
 mccormick3[1,2]: - y[1,2] - u[1,2] + r[1,2] >= -1
 mccormick3[1,3]: - y[1,3] - u[1,3] + r[1,3] >= -1
 mccormick3[1,4]: - y[1,4] - u[1,4] + r[1,4] >= -1
 mccormick3[1,5]: - y[1,5] - u[1,5] + r[1,5] >= -1
 mccormick3[1,6]: - y[1,6] - u[1,6] + r[1,6] >= -1
 mccormick3[1,7]: - y[1,7] - u[1,7] + r[1,7] >= -1
 mccormick3[1,8]: - y[1,8] - u[1,8] + r[1,8] >= -1
 mccormick3[1,9]: - y[1,9] - u[1,9] + r[1,9] >= -1
 mccormick3[1,10]: - y[1,10] - u[1,10] + r[1,10] >= -1
 mccormick3[2,0]: - y[2,0] - u[2,0] + r[2,0] >= -1
 mccormick3[2,1]: - y[2,1] - u[2,1] + r[2,1] >= -1
 mccormick3[2,3]: - y[2,3] - u[2,3] + r[2,3] >= -1
 mccormick3[2,4]: - y[2,4] - u[2,4] + r[2,4] >= -1
 mccormick3[2,5]: - y[2,5] - u[2,5] + r[2,5] >= -1
 mccormick3[2,6]: - y[2,6] - u[2,6] + r[2,6] >= -1
 mccormick3[2,7]: - y[2,7] - u[2,7] + r[2,7] >= -1
 mccormick3[2,10]: - y[2,10] - u[2,10] + r[2,10] >= -1
 mccormick3[3,0]: - y[3,0] - u[3,0] + r[3,0] >= -1
 mccormick3[3,1]: - y[3,1] - u[3,1] + r[3,1] >= -1
 mccormick3[3,2]: - y[3,2] - u[3,2] + r[3,2] >= -1
 mccormick3[3,4]: - y[3,4] - u[3,4] + r[3,4] >= -1
 mccormick3[3,5]: - y[3,5] - u[3,5] + r[3,5] >= -1
 mccormick3[3,6]: - y[3,6] - u[3,6] + r[3,6] >= -1
 mccormick3[3,8]: - y[3,8] - u[3,8] + r[3,8] >= -1
 mccormick3[3,9]: - y[3,9] - u[3,9] + r[3,9] >= -1
 mccormick3[3,10]: - y[3,10] - u[3,10] + r[3,10] >= -1
 mccormick3[4,0]: - y[4,0] - u[4,0] + r[4,0] >= -1
 mccormick3[4,1]: - y[4,1] - u[4,1] + r[4,1] >= -1
 mccormick3[4,2]: - y[4,2] - u[4,2] + r[4,2] >= -1
 mccormick3[4,3]: - y[4,3] - u[4,3] + r[4,3] >= -1
 mccormick3[4,5]: - y[4,5] - u[4,5] + r[4,5] >= -1
 mccormick3[4,6]: - y[4,6] - u[4,6] + r[4,6] >= -1
 mccormick3[4,7]: - y[4,7] - u[4,7] + r[4,7] >= -1
 mccormick3[4,10]: - y[4,10] - u[4,10] + r[4,10] >= -1
 mccormick3[5,0]: - y[5,0] - u[5,0] + r[5,0] >= -1
 mccormick3[5,1]: - y[5,1] - u[5,1] + r[5,1] >= -1
 mccormick3[5,2]: - y[5,2] - u[5,2] + r[5,2] >= -1
 mccormick3[5,3]: - y[5,3] - u[5,3] + r[5,3] >= -1
 mccormick3[5,4]: - y[5,4] - u[5,4] + r[5,4] >= -1
 mccormick3[5,6]: - y[5,6] - u[5,6] + r[5,6] >= -1
 mccormick3[5,10]: - y[5,10] - u[5,10] + r[5,10] >= -1
 mccormick3[6,0]: - y[6,0] - u[6,0] + r[6,0] >= -1
 mccormick3[6,1]: - y[6,1] - u[6,1] + r[6,1] >= -1
 mccormick3[6,2]: - y[6,2] - u[6,2] + r[6,2] >= -1
 mccormick3[6,3]: - y[6,3] - u[6,3] + r[6,3] >= -1
 mccormick3[6,4]: - y[6,4] - u[6,4] + r[6,4] >= -1
 mccormick3[6,5]: - y[6,5] - u[6,5] + r[6,5] >= -1
 mccormick3[6,8]: - y[6,8] - u[6,8] + r[6,8] >= -1
 mccormick3[6,9]: - y[6,9] - u[6,9] + r[6,9] >= -1
 mccormick3[6,10]: - y[6,10] - u[6,10] + r[6,10] >= -1
 mccormick3[7,0]: - y[7,0] - u[7,0] + r[7,0] >= -1
 mccormick3[7,1]: - y[7,1] - u[7,1] + r[7,1] >= -1
 mccormick3[7,2]: - y[7,2] - u[7,2] + r[7,2] >= -1
 mccormick3[7,4]: - y[7,4] - u[7,4] + r[7,4] >= -1
 mccormick3[7,10]: - y[7,10] - u[7,10] + r[7,10] >= -1
 mccormick3[8,0]: - y[8,0] - u[8,0] + r[8,0] >= -1
 mccormick3[8,1]: - y[8,1] - u[8,1] + r[8,1] >= -1
 mccormick3[8,3]: - y[8,3] - u[8,3] + r[8,3] >= -1
 mccormick3[8,6]: - y[8,6] - u[8,6] + r[8,6] >= -1
 mccormick3[8,9]: - y[8,9] - u[8,9] + r[8,9] >= -1
 mccormick3[8,10]: - y[8,10] - u[8,10] + r[8,10] >= -1
 mccormick3[9,0]: - y[9,0] - u[9,0] + r[9,0] >= -1
 mccormick3[9,1]: - y[9,1] - u[9,1] + r[9,1] >= -1
 mccormick3[9,3]: - y[9,3] - u[9,3] + r[9,3] >= -1
 mccormick3[9,6]: - y[9,6] - u[9,6] + r[9,6] >= -1
 mccormick3[9,8]: - y[9,8] - u[9,8] + r[9,8] >= -1
 mccormick3[9,10]: - y[9,10] - u[9,10] + r[9,10] >= -1
 mccormick3[10,0]: - y[10,0] - u[10,0] + r[10,0] >= -1
 mccormick3[10,1]: - y[10,1] - u[10,1] + r[10,1] >= -1
 mccormick3[10,2]: - y[10,2] - u[10,2] + r[10,2] >= -1
 mccormick3[10,3]: - y[10,3] - u[10,3] + r[10,3] >= -1
 mccormick3[10,4]: - y[10,4] - u[10,4] + r[10,4] >= -1
 mccormick3[10,5]: - y[10,5] - u[10,5] + r[10,5] >= -1
 mccormick3[10,6]: - y[10,6] - u[10,6] + r[10,6] >= -1
 mccormick3[10,7]: - y[10,7] - u[10,7] + r[10,7] >= -1
 mccormick3[10,8]: - y[10,8] - u[10,8] + r[10,8] >= -1
 mccormick3[10,9]: - y[10,9] - u[10,9] + r[10,9] >= -1
Bounds
Binaries
 y[0,1] y[0,2] y[0,3] y[0,4] y[0,5] y[0,6] y[0,7] y[0,8] y[0,9] y[0,10]
 y[1,0] y[1,2] y[1,3] y[1,4] y[1,5] y[1,6] y[1,7] y[1,8] y[1,9] y[1,10]
 y[2,0] y[2,1] y[2,3] y[2,4] y[2,5] y[2,6] y[2,7] y[2,10] y[3,0] y[3,1]
 y[3,2] y[3,4] y[3,5] y[3,6] y[3,8] y[3,9] y[3,10] y[4,0] y[4,1] y[4,2]
 y[4,3] y[4,5] y[4,6] y[4,7] y[4,10] y[5,0] y[5,1] y[5,2] y[5,3] y[5,4]
 y[5,6] y[5,10] y[6,0] y[6,1] y[6,2] y[6,3] y[6,4] y[6,5] y[6,8] y[6,9]
 y[6,10] y[7,0] y[7,1] y[7,2] y[7,4] y[7,10] y[8,0] y[8,1] y[8,3] y[8,6]
 y[8,9] y[8,10] y[9,0] y[9,1] y[9,3] y[9,6] y[9,8] y[9,10] y[10,0] y[10,1]
 y[10,2] y[10,3] y[10,4] y[10,5] y[10,6] y[10,7] y[10,8] y[10,9] x[0,1]
 x[0,2] x[0,3] x[0,4] x[0,5] x[0,6] x[0,7] x[0,8] x[0,9] x[0,10] x[1,0]
 x[1,2] x[1,3] x[1,4] x[1,5] x[1,6] x[1,7] x[1,8] x[1,9] x[1,10] x[2,0]
 x[2,1] x[2,3] x[2,4] x[2,5] x[2,6] x[2,7] x[2,10] x[3,0] x[3,1] x[3,2]
 x[3,4] x[3,5] x[3,6] x[3,8] x[3,9] x[3,10] x[4,0] x[4,1] x[4,2] x[4,3]
 x[4,5] x[4,6] x[4,7] x[4,10] x[5,0] x[5,1] x[5,2] x[5,3] x[5,4] x[5,6]
 x[5,10] x[6,0] x[6,1] x[6,2] x[6,3] x[6,4] x[6,5] x[6,8] x[6,9] x[6,10]
 x[7,0] x[7,1] x[7,2] x[7,4] x[7,10] x[8,0] x[8,1] x[8,3] x[8,6] x[8,9]
 x[8,10] x[9,0] x[9,1] x[9,3] x[9,6] x[9,8] x[9,10] x[10,0] x[10,1] x[10,2]
 x[10,3] x[10,4] x[10,5] x[10,6] x[10,7] x[10,8] x[10,9] u[0,1] u[0,2]
 u[0,3] u[0,4] u[0,5] u[0,6] u[0,7] u[0,8] u[0,9] u[0,10] u[1,0] u[1,2]
 u[1,3] u[1,4] u[1,5] u[1,6] u[1,7] u[1,8] u[1,9] u[1,10] u[2,0] u[2,1]
 u[2,3] u[2,4] u[2,5] u[2,6] u[2,7] u[2,10] u[3,0] u[3,1] u[3,2] u[3,4]
 u[3,5] u[3,6] u[3,8] u[3,9] u[3,10] u[4,0] u[4,1] u[4,2] u[4,3] u[4,5]
 u[4,6] u[4,7] u[4,10] u[5,0] u[5,1] u[5,2] u[5,3] u[5,4] u[5,6] u[5,10]
 u[6,0] u[6,1] u[6,2] u[6,3] u[6,4] u[6,5] u[6,8] u[6,9] u[6,10] u[7,0]
 u[7,1] u[7,2] u[7,4] u[7,10] u[8,0] u[8,1] u[8,3] u[8,6] u[8,9] u[8,10]
 u[9,0] u[9,1] u[9,3] u[9,6] u[9,8] u[9,10] u[10,0] u[10,1] u[10,2] u[10,3]
 u[10,4] u[10,5] u[10,6] u[10,7] u[10,8] u[10,9] r[0,1] r[0,2] r[0,3]
 r[0,4] r[0,5] r[0,6] r[0,7] r[0,8] r[0,9] r[0,10] r[1,0] r[1,2] r[1,3]
 r[1,4] r[1,5] r[1,6] r[1,7] r[1,8] r[1,9] r[1,10] r[2,0] r[2,1] r[2,3]
 r[2,4] r[2,5] r[2,6] r[2,7] r[2,10] r[3,0] r[3,1] r[3,2] r[3,4] r[3,5]
 r[3,6] r[3,8] r[3,9] r[3,10] r[4,0] r[4,1] r[4,2] r[4,3] r[4,5] r[4,6]
 r[4,7] r[4,10] r[5,0] r[5,1] r[5,2] r[5,3] r[5,4] r[5,6] r[5,10] r[6,0]
 r[6,1] r[6,2] r[6,3] r[6,4] r[6,5] r[6,8] r[6,9] r[6,10] r[7,0] r[7,1]
 r[7,2] r[7,4] r[7,10] r[8,0] r[8,1] r[8,3] r[8,6] r[8,9] r[8,10] r[9,0]
 r[9,1] r[9,3] r[9,6] r[9,8] r[9,10] r[10,0] r[10,1] r[10,2] r[10,3]
 r[10,4] r[10,5] r[10,6] r[10,7] r[10,8] r[10,9]
End
