\ Model sp_11_1
\ LP format - for model browsing. Use MPS format to capture full model detail.
\ Signature: 0x112138f5eab728a3
Minimize
  26.93 y[0,2] + 65.19 y[0,3] + 23.41 y[0,5] + 76.9 y[0,6] + 80.53 y[0,7]
   + 63.89 y[0,8] + 69.87 y[0,9] + 80.53 y[1,2] + 43.68 y[1,3] + 4 y[1,4]
   + 36.4 y[1,6] + 48.37 y[1,8] + 52.5 y[1,9] + 28.79 y[1,10]
   + 26.93 y[2,0] + 80.53 y[2,1] + 38.95 y[2,3] + 6.08 y[2,5]
   + 58.14 y[2,6] + 47.17 y[2,8] + 56.29 y[2,9] + 61.98 y[2,10]
   + 65.19 y[3,0] + 43.68 y[3,1] + 38.95 y[3,2] + 44.94 y[3,4]
   + 44.2 y[3,5] + 36.4 y[3,6] + 34.99 y[3,8] + 46.04 y[3,9]
   + 35.34 y[3,10] + 4 y[4,1] + 44.94 y[4,3] + 40.16 y[4,6] + 51.88 y[4,8]
   + 56.32 y[4,9] + 32.57 y[4,10] + 23.41 y[5,0] + 6.08 y[5,2]
   + 44.2 y[5,3] + 64.2 y[5,6] + 53.08 y[5,8] + 61.98 y[5,9]
   + 68.07 y[5,10] + 76.9 y[6,0] + 36.4 y[6,1] + 58.14 y[6,2] + 36.4 y[6,3]
   + 40.16 y[6,4] + 64.2 y[6,5] + 61.01 y[6,7] + 13.6 y[6,8] + 16.28 y[6,9]
   + 7.62 y[6,10] + 80.53 y[7,0] + 61.01 y[7,6] + 54.34 y[7,8]
   + 45.18 y[7,9] + 68.03 y[7,10] + 63.89 y[8,0] + 48.37 y[8,1]
   + 47.17 y[8,2] + 34.99 y[8,3] + 51.88 y[8,4] + 53.08 y[8,5]
   + 13.6 y[8,6] + 54.34 y[8,7] + 11.31 y[8,9] + 20.52 y[8,10]
   + 69.87 y[9,0] + 52.5 y[9,1] + 56.29 y[9,2] + 46.04 y[9,3]
   + 56.32 y[9,4] + 61.98 y[9,5] + 16.28 y[9,6] + 45.18 y[9,7]
   + 11.31 y[9,8] + 23.77 y[9,10] + 28.79 y[10,1] + 61.98 y[10,2]
   + 35.34 y[10,3] + 32.57 y[10,4] + 68.07 y[10,5] + 7.62 y[10,6]
   + 68.03 y[10,7] + 20.52 y[10,8] + 23.77 y[10,9] + 1.7 x[0,2]
   + 4.37 x[0,3] + 0.79 x[0,5] + 1.04 x[0,6] + 1.32 x[0,7] + 1.12 x[0,8]
   + 1.34 x[0,9] + 1.58 x[1,2] + 2.62 x[1,3] + 0.07 x[1,4] + 1.21 x[1,6]
   + 3.32 x[1,8] + 1.38 x[1,9] + 0.6 x[1,10] + 0.37 x[2,0] + 3.6 x[2,1]
   + 0.83 x[2,3] + 0.08 x[2,5] + 1.16 x[2,6] + 1.25 x[2,8] + 0.82 x[2,9]
   + 2.94 x[2,10] + 4.52 x[3,0] + 2.57 x[3,1] + 1.92 x[3,2] + 2.2 x[3,4]
   + 0.6 x[3,5] + 2.21 x[3,6] + 1.31 x[3,8] + 2.25 x[3,9] + 1.89 x[3,10]
   + 0.12 x[4,1] + 2.24 x[4,3] + 1.46 x[4,6] + 0.91 x[4,8] + 0.83 x[4,9]
   + 0.95 x[4,10] + 1.47 x[5,0] + 0.16 x[5,2] + 2.37 x[5,3] + 3.23 x[5,6]
   + 0.75 x[5,8] + 4.31 x[5,9] + 3.39 x[5,10] + 2.14 x[6,0] + 2.33 x[6,1]
   + 3.12 x[6,2] + 1.15 x[6,3] + 1.45 x[6,4] + 2.46 x[6,5] + 2.13 x[6,7]
   + 0.77 x[6,8] + 0.51 x[6,9] + 0.37 x[6,10] + 5.03 x[7,0] + 3.29 x[7,6]
   + 2.42 x[7,8] + 1.29 x[7,9] + 3.5 x[7,10] + 2.27 x[8,0] + 2.19 x[8,1]
   + 0.89 x[8,2] + 0.57 x[8,3] + 2.98 x[8,4] + 3.17 x[8,5] + 0.24 x[8,6]
   + 0.6 x[8,7] + 0.64 x[8,9] + 1.22 x[8,10] + 3.97 x[9,0] + 0.9 x[9,1]
   + 2.36 x[9,2] + 1.18 x[9,3] + 3.11 x[9,4] + 2.32 x[9,5] + 0.49 x[9,6]
   + 3.03 x[9,7] + 0.17 x[9,8] + 0.29 x[9,10] + 1.53 x[10,1] + 3.77 x[10,2]
   + 1.78 x[10,3] + 0.7 x[10,4] + 4.5 x[10,5] + 0.26 x[10,6] + 3.11 x[10,7]
   + 0.71 x[10,8] + 1.38 x[10,9] + 2.693 r[0,2] + 6.519 r[0,3]
   + 2.341 r[0,5] + 7.69 r[0,6] + 8.053 r[0,7] + 6.389 r[0,8]
   + 6.987 r[0,9] + 8.053 r[1,2] + 4.368 r[1,3] + 0.4 r[1,4] + 3.64 r[1,6]
   + 4.837 r[1,8] + 5.25 r[1,9] + 2.879 r[1,10] + 2.693 r[2,0]
   + 8.053 r[2,1] + 3.895 r[2,3] + 0.608 r[2,5] + 5.814 r[2,6]
   + 4.717 r[2,8] + 5.629 r[2,9] + 6.198 r[2,10] + 6.519 r[3,0]
   + 4.368 r[3,1] + 3.895 r[3,2] + 4.494 r[3,4] + 4.42 r[3,5] + 3.64 r[3,6]
   + 3.499 r[3,8] + 4.604 r[3,9] + 3.534 r[3,10] + 0.4 r[4,1]
   + 4.494 r[4,3] + 4.016 r[4,6] + 5.188 r[4,8] + 5.632 r[4,9]
   + 3.257 r[4,10] + 2.341 r[5,0] + 0.608 r[5,2] + 4.42 r[5,3]
   + 6.42 r[5,6] + 5.308 r[5,8] + 6.198 r[5,9] + 6.807 r[5,10]
   + 7.69 r[6,0] + 3.64 r[6,1] + 5.814 r[6,2] + 3.64 r[6,3] + 4.016 r[6,4]
   + 6.42 r[6,5] + 6.101 r[6,7] + 1.36 r[6,8] + 1.628 r[6,9]
   + 0.762 r[6,10] + 8.053 r[7,0] + 6.101 r[7,6] + 5.434 r[7,8]
   + 4.518 r[7,9] + 6.803 r[7,10] + 6.389 r[8,0] + 4.837 r[8,1]
   + 4.717 r[8,2] + 3.499 r[8,3] + 5.188 r[8,4] + 5.308 r[8,5]
   + 1.36 r[8,6] + 5.434 r[8,7] + 1.131 r[8,9] + 2.052 r[8,10]
   + 6.987 r[9,0] + 5.25 r[9,1] + 5.629 r[9,2] + 4.604 r[9,3]
   + 5.632 r[9,4] + 6.198 r[9,5] + 1.628 r[9,6] + 4.518 r[9,7]
   + 1.131 r[9,8] + 2.377 r[9,10] + 2.879 r[10,1] + 6.198 r[10,2]
   + 3.534 r[10,3] + 3.257 r[10,4] + 6.807 r[10,5] + 0.762 r[10,6]
   + 6.803 r[10,7] + 2.052 r[10,8] + 2.377 r[10,9]
Subject To
 flow_cons_inner_nodes[1]: - y[1,2] - y[1,3] - y[1,4] - y[1,6] - y[1,8]
   - y[1,9] - y[1,10] + y[2,1] + y[3,1] + y[4,1] + y[6,1] + y[8,1] + y[9,1]
   + y[10,1] = 0
 flow_cons_inner_nodes[2]: y[0,2] + y[1,2] - y[2,0] - y[2,1] - y[2,3]
   - y[2,5] - y[2,6] - y[2,8] - y[2,9] - y[2,10] + y[3,2] + y[5,2] + y[6,2]
   + y[8,2] + y[9,2] + y[10,2] = 0
 flow_cons_inner_nodes[3]: y[0,3] + y[1,3] + y[2,3] - y[3,0] - y[3,1]
   - y[3,2] - y[3,4] - y[3,5] - y[3,6] - y[3,8] - y[3,9] - y[3,10] + y[4,3]
   + y[5,3] + y[6,3] + y[8,3] + y[9,3] + y[10,3] = 0
 flow_cons_inner_nodes[5]: y[0,5] + y[2,5] + y[3,5] - y[5,0] - y[5,2]
   - y[5,3] - y[5,6] - y[5,8] - y[5,9] - y[5,10] + y[6,5] + y[8,5] + y[9,5]
   + y[10,5] = 0
 flow_cons_inner_nodes[6]: y[0,6] + y[1,6] + y[2,6] + y[3,6] + y[4,6]
   + y[5,6] - y[6,0] - y[6,1] - y[6,2] - y[6,3] - y[6,4] - y[6,5] - y[6,7]
   - y[6,8] - y[6,9] - y[6,10] + y[7,6] + y[8,6] + y[9,6] + y[10,6] = 0
 flow_cons_inner_nodes[7]: y[0,7] + y[6,7] - y[7,0] - y[7,6] - y[7,8]
   - y[7,9] - y[7,10] + y[8,7] + y[9,7] + y[10,7] = 0
 flow_cons_inner_nodes[8]: y[0,8] + y[1,8] + y[2,8] + y[3,8] + y[4,8]
   + y[5,8] + y[6,8] + y[7,8] - y[8,0] - y[8,1] - y[8,2] - y[8,3] - y[8,4]
   - y[8,5] - y[8,6] - y[8,7] - y[8,9] - y[8,10] + y[9,8] + y[10,8] = 0
 flow_cons_inner_nodes[9]: y[0,9] + y[1,9] + y[2,9] + y[3,9] + y[4,9]
   + y[5,9] + y[6,9] + y[7,9] + y[8,9] - y[9,0] - y[9,1] - y[9,2] - y[9,3]
   - y[9,4] - y[9,5] - y[9,6] - y[9,7] - y[9,8] - y[9,10] + y[10,9] = 0
 flow_cons_inner_nodes[10]: y[1,10] + y[2,10] + y[3,10] + y[4,10] + y[5,10]
   + y[6,10] + y[7,10] + y[8,10] + y[9,10] - y[10,1] - y[10,2] - y[10,3]
   - y[10,4] - y[10,5] - y[10,6] - y[10,7] - y[10,8] - y[10,9] = 0
 flow_cons_source: y[0,2] + y[0,3] + y[0,5] + y[0,6] + y[0,7] + y[0,8]
   + y[0,9] - y[2,0] - y[3,0] - y[5,0] - y[6,0] - y[7,0] - y[8,0] - y[9,0]
   = 1
 flow_cons_target: y[1,4] + y[3,4] - y[4,1] - y[4,3] - y[4,6] - y[4,8]
   - y[4,9] - y[4,10] + y[6,4] + y[8,4] + y[9,4] + y[10,4] = 1
 primal_lower_interdiction[0,2]: x[0,2] + u[0,2] <= 1
 primal_lower_interdiction[0,3]: x[0,3] + u[0,3] <= 1
 primal_lower_interdiction[0,5]: x[0,5] + u[0,5] <= 1
 primal_lower_interdiction[0,6]: x[0,6] + u[0,6] <= 1
 primal_lower_interdiction[0,7]: x[0,7] + u[0,7] <= 1
 primal_lower_interdiction[0,8]: x[0,8] + u[0,8] <= 1
 primal_lower_interdiction[0,9]: x[0,9] + u[0,9] <= 1
 primal_lower_interdiction[1,2]: x[1,2] + u[1,2] <= 1
 primal_lower_interdiction[1,3]: x[1,3] + u[1,3] <= 1
 primal_lower_interdiction[1,4]: x[1,4] + u[1,4] <= 1
 primal_lower_interdiction[1,6]: x[1,6] + u[1,6] <= 1
 primal_lower_interdiction[1,8]: x[1,8] + u[1,8] <= 1
 primal_lower_interdiction[1,9]: x[1,9] + u[1,9] <= 1
 primal_lower_interdiction[1,10]: x[1,10] + u[1,10] <= 1
 primal_lower_interdiction[2,0]: x[2,0] + u[2,0] <= 1
 primal_lower_interdiction[2,1]: x[2,1] + u[2,1] <= 1
 primal_lower_interdiction[2,3]: x[2,3] + u[2,3] <= 1
 primal_lower_interdiction[2,5]: x[2,5] + u[2,5] <= 1
 primal_lower_interdiction[2,6]: x[2,6] + u[2,6] <= 1
 primal_lower_interdiction[2,8]: x[2,8] + u[2,8] <= 1
 primal_lower_interdiction[2,9]: x[2,9] + u[2,9] <= 1
 primal_lower_interdiction[2,10]: x[2,10] + u[2,10] <= 1
 primal_lower_interdiction[3,0]: x[3,0] + u[3,0] <= 1
 primal_lower_interdiction[3,1]: x[3,1] + u[3,1] <= 1
 primal_lower_interdiction[3,2]: x[3,2] + u[3,2] <= 1
 primal_lower_interdiction[3,4]: x[3,4] + u[3,4] <= 1
 primal_lower_interdiction[3,5]: x[3,5] + u[3,5] <= 1
 primal_lower_interdiction[3,6]: x[3,6] + u[3,6] <= 1
 primal_lower_interdiction[3,8]: x[3,8] + u[3,8] <= 1
 primal_lower_interdiction[3,9]: x[3,9] + u[3,9] <= 1
 primal_lower_interdiction[3,10]: x[3,10] + u[3,10] <= 1
 primal_lower_interdiction[4,1]: x[4,1] + u[4,1] <= 1
 primal_lower_interdiction[4,3]: x[4,3] + u[4,3] <= 1
 primal_lower_interdiction[4,6]: x[4,6] + u[4,6] <= 1
 primal_lower_interdiction[4,8]: x[4,8] + u[4,8] <= 1
 primal_lower_interdiction[4,9]: x[4,9] + u[4,9] <= 1
 primal_lower_interdiction[4,10]: x[4,10] + u[4,10] <= 1
 primal_lower_interdiction[5,0]: x[5,0] + u[5,0] <= 1
 primal_lower_interdiction[5,2]: x[5,2] + u[5,2] <= 1
 primal_lower_interdiction[5,3]: x[5,3] + u[5,3] <= 1
 primal_lower_interdiction[5,6]: x[5,6] + u[5,6] <= 1
 primal_lower_interdiction[5,8]: x[5,8] + u[5,8] <= 1
 primal_lower_interdiction[5,9]: x[5,9] + u[5,9] <= 1
 primal_lower_interdiction[5,10]: x[5,10] + u[5,10] <= 1
 primal_lower_interdiction[6,0]: x[6,0] + u[6,0] <= 1
 primal_lower_interdiction[6,1]: x[6,1] + u[6,1] <= 1
 primal_lower_interdiction[6,2]: x[6,2] + u[6,2] <= 1
 primal_lower_interdiction[6,3]: x[6,3] + u[6,3] <= 1
 primal_lower_interdiction[6,4]: x[6,4] + u[6,4] <= 1
 primal_lower_interdiction[6,5]: x[6,5] + u[6,5] <= 1
 primal_lower_interdiction[6,7]: x[6,7] + u[6,7] <= 1
 primal_lower_interdiction[6,8]: x[6,8] + u[6,8] <= 1
 primal_lower_interdiction[6,9]: x[6,9] + u[6,9] <= 1
 primal_lower_interdiction[6,10]: x[6,10] + u[6,10] <= 1
 primal_lower_interdiction[7,0]: x[7,0] + u[7,0] <= 1
 primal_lower_interdiction[7,6]: x[7,6] + u[7,6] <= 1
 primal_lower_interdiction[7,8]: x[7,8] + u[7,8] <= 1
 primal_lower_interdiction[7,9]: x[7,9] + u[7,9] <= 1
 primal_lower_interdiction[7,10]: x[7,10] + u[7,10] <= 1
 primal_lower_interdiction[8,0]: x[8,0] + u[8,0] <= 1
 primal_lower_interdiction[8,1]: x[8,1] + u[8,1] <= 1
 primal_lower_interdiction[8,2]: x[8,2] + u[8,2] <= 1
 primal_lower_interdiction[8,3]: x[8,3] + u[8,3] <= 1
 primal_lower_interdiction[8,4]: x[8,4] + u[8,4] <= 1
 primal_lower_interdiction[8,5]: x[8,5] + u[8,5] <= 1
 primal_lower_interdiction[8,6]: x[8,6] + u[8,6] <= 1
 primal_lower_interdiction[8,7]: x[8,7] + u[8,7] <= 1
 primal_lower_interdiction[8,9]: x[8,9] + u[8,9] <= 1
 primal_lower_interdiction[8,10]: x[8,10] + u[8,10] <= 1
 primal_lower_interdiction[9,0]: x[9,0] + u[9,0] <= 1
 primal_lower_interdiction[9,1]: x[9,1] + u[9,1] <= 1
 primal_lower_interdiction[9,2]: x[9,2] + u[9,2] <= 1
 primal_lower_interdiction[9,3]: x[9,3] + u[9,3] <= 1
 primal_lower_interdiction[9,4]: x[9,4] + u[9,4] <= 1
 primal_lower_interdiction[9,5]: x[9,5] + u[9,5] <= 1
 primal_lower_interdiction[9,6]: x[9,6] + u[9,6] <= 1
 primal_lower_interdiction[9,7]: x[9,7] + u[9,7] <= 1
 primal_lower_interdiction[9,8]: x[9,8] + u[9,8] <= 1
 primal_lower_interdiction[9,10]: x[9,10] + u[9,10] <= 1
 primal_lower_interdiction[10,1]: x[10,1] + u[10,1] <= 1
 primal_lower_interdiction[10,2]: x[10,2] + u[10,2] <= 1
 primal_lower_interdiction[10,3]: x[10,3] + u[10,3] <= 1
 primal_lower_interdiction[10,4]: x[10,4] + u[10,4] <= 1
 primal_lower_interdiction[10,5]: x[10,5] + u[10,5] <= 1
 primal_lower_interdiction[10,6]: x[10,6] + u[10,6] <= 1
 primal_lower_interdiction[10,7]: x[10,7] + u[10,7] <= 1
 primal_lower_interdiction[10,8]: x[10,8] + u[10,8] <= 1
 primal_lower_interdiction[10,9]: x[10,9] + u[10,9] <= 1
 primal_lower_budget: u[0,2] + u[0,3] + u[0,5] + u[0,6] + u[0,7] + u[0,8]
   + u[0,9] + u[1,2] + u[1,3] + u[1,4] + u[1,6] + u[1,8] + u[1,9] + u[1,10]
   + u[2,0] + u[2,1] + u[2,3] + u[2,5] + u[2,6] + u[2,8] + u[2,9] + u[2,10]
   + u[3,0] + u[3,1] + u[3,2] + u[3,4] + u[3,5] + u[3,6] + u[3,8] + u[3,9]
   + u[3,10] + u[4,1] + u[4,3] + u[4,6] + u[4,8] + u[4,9] + u[4,10]
   + u[5,0] + u[5,2] + u[5,3] + u[5,6] + u[5,8] + u[5,9] + u[5,10] + u[6,0]
   + u[6,1] + u[6,2] + u[6,3] + u[6,4] + u[6,5] + u[6,7] + u[6,8] + u[6,9]
   + u[6,10] + u[7,0] + u[7,6] + u[7,8] + u[7,9] + u[7,10] + u[8,0]
   + u[8,1] + u[8,2] + u[8,3] + u[8,4] + u[8,5] + u[8,6] + u[8,7] + u[8,9]
   + u[8,10] + u[9,0] + u[9,1] + u[9,2] + u[9,3] + u[9,4] + u[9,5] + u[9,6]
   + u[9,7] + u[9,8] + u[9,10] + u[10,1] + u[10,2] + u[10,3] + u[10,4]
   + u[10,5] + u[10,6] + u[10,7] + u[10,8] + u[10,9] <= 2
 mccormick1[0,2]: - u[0,2] + r[0,2] <= 0
 mccormick1[0,3]: - u[0,3] + r[0,3] <= 0
 mccormick1[0,5]: - u[0,5] + r[0,5] <= 0
 mccormick1[0,6]: - u[0,6] + r[0,6] <= 0
 mccormick1[0,7]: - u[0,7] + r[0,7] <= 0
 mccormick1[0,8]: - u[0,8] + r[0,8] <= 0
 mccormick1[0,9]: - u[0,9] + r[0,9] <= 0
 mccormick1[1,2]: - u[1,2] + r[1,2] <= 0
 mccormick1[1,3]: - u[1,3] + r[1,3] <= 0
 mccormick1[1,4]: - u[1,4] + r[1,4] <= 0
 mccormick1[1,6]: - u[1,6] + r[1,6] <= 0
 mccormick1[1,8]: - u[1,8] + r[1,8] <= 0
 mccormick1[1,9]: - u[1,9] + r[1,9] <= 0
 mccormick1[1,10]: - u[1,10] + r[1,10] <= 0
 mccormick1[2,0]: - u[2,0] + r[2,0] <= 0
 mccormick1[2,1]: - u[2,1] + r[2,1] <= 0
 mccormick1[2,3]: - u[2,3] + r[2,3] <= 0
 mccormick1[2,5]: - u[2,5] + r[2,5] <= 0
 mccormick1[2,6]: - u[2,6] + r[2,6] <= 0
 mccormick1[2,8]: - u[2,8] + r[2,8] <= 0
 mccormick1[2,9]: - u[2,9] + r[2,9] <= 0
 mccormick1[2,10]: - u[2,10] + r[2,10] <= 0
 mccormick1[3,0]: - u[3,0] + r[3,0] <= 0
 mccormick1[3,1]: - u[3,1] + r[3,1] <= 0
 mccormick1[3,2]: - u[3,2] + r[3,2] <= 0
 mccormick1[3,4]: - u[3,4] + r[3,4] <= 0
 mccormick1[3,5]: - u[3,5] + r[3,5] <= 0
 mccormick1[3,6]: - u[3,6] + r[3,6] <= 0
 mccormick1[3,8]: - u[3,8] + r[3,8] <= 0
 mccormick1[3,9]: - u[3,9] + r[3,9] <= 0
 mccormick1[3,10]: - u[3,10] + r[3,10] <= 0
 mccormick1[4,1]: - u[4,1] + r[4,1] <= 0
 mccormick1[4,3]: - u[4,3] + r[4,3] <= 0
 mccormick1[4,6]: - u[4,6] + r[4,6] <= 0
 mccormick1[4,8]: - u[4,8] + r[4,8] <= 0
 mccormick1[4,9]: - u[4,9] + r[4,9] <= 0
 mccormick1[4,10]: - u[4,10] + r[4,10] <= 0
 mccormick1[5,0]: - u[5,0] + r[5,0] <= 0
 mccormick1[5,2]: - u[5,2] + r[5,2] <= 0
 mccormick1[5,3]: - u[5,3] + r[5,3] <= 0
 mccormick1[5,6]: - u[5,6] + r[5,6] <= 0
 mccormick1[5,8]: - u[5,8] + r[5,8] <= 0
 mccormick1[5,9]: - u[5,9] + r[5,9] <= 0
 mccormick1[5,10]: - u[5,10] + r[5,10] <= 0
 mccormick1[6,0]: - u[6,0] + r[6,0] <= 0
 mccormick1[6,1]: - u[6,1] + r[6,1] <= 0
 mccormick1[6,2]: - u[6,2] + r[6,2] <= 0
 mccormick1[6,3]: - u[6,3] + r[6,3] <= 0
 mccormick1[6,4]: - u[6,4] + r[6,4] <= 0
 mccormick1[6,5]: - u[6,5] + r[6,5] <= 0
 mccormick1[6,7]: - u[6,7] + r[6,7] <= 0
 mccormick1[6,8]: - u[6,8] + r[6,8] <= 0
 mccormick1[6,9]: - u[6,9] + r[6,9] <= 0
 mccormick1[6,10]: - u[6,10] + r[6,10] <= 0
 mccormick1[7,0]: - u[7,0] + r[7,0] <= 0
 mccormick1[7,6]: - u[7,6] + r[7,6] <= 0
 mccormick1[7,8]: - u[7,8] + r[7,8] <= 0
 mccormick1[7,9]: - u[7,9] + r[7,9] <= 0
 mccormick1[7,10]: - u[7,10] + r[7,10] <= 0
 mccormick1[8,0]: - u[8,0] + r[8,0] <= 0
 mccormick1[8,1]: - u[8,1] + r[8,1] <= 0
 mccormick1[8,2]: - u[8,2] + r[8,2] <= 0
 mccormick1[8,3]: - u[8,3] + r[8,3] <= 0
 mccormick1[8,4]: - u[8,4] + r[8,4] <= 0
 mccormick1[8,5]: - u[8,5] + r[8,5] <= 0
 mccormick1[8,6]: - u[8,6] + r[8,6] <= 0
 mccormick1[8,7]: - u[8,7] + r[8,7] <= 0
 mccormick1[8,9]: - u[8,9] + r[8,9] <= 0
 mccormick1[8,10]: - u[8,10] + r[8,10] <= 0
 mccormick1[9,0]: - u[9,0] + r[9,0] <= 0
 mccormick1[9,1]: - u[9,1] + r[9,1] <= 0
 mccormick1[9,2]: - u[9,2] + r[9,2] <= 0
 mccormick1[9,3]: - u[9,3] + r[9,3] <= 0
 mccormick1[9,4]: - u[9,4] + r[9,4] <= 0
 mccormick1[9,5]: - u[9,5] + r[9,5] <= 0
 mccormick1[9,6]: - u[9,6] + r[9,6] <= 0
 mccormick1[9,7]: - u[9,7] + r[9,7] <= 0
 mccormick1[9,8]: - u[9,8] + r[9,8] <= 0
 mccormick1[9,10]: - u[9,10] + r[9,10] <= 0
 mccormick1[10,1]: - u[10,1] + r[10,1] <= 0
 mccormick1[10,2]: - u[10,2] + r[10,2] <= 0
 mccormick1[10,3]: - u[10,3] + r[10,3] <= 0
 mccormick1[10,4]: - u[10,4] + r[10,4] <= 0
 mccormick1[10,5]: - u[10,5] + r[10,5] <= 0
 mccormick1[10,6]: - u[10,6] + r[10,6] <= 0
 mccormick1[10,7]: - u[10,7] + r[10,7] <= 0
 mccormick1[10,8]: - u[10,8] + r[10,8] <= 0
 mccormick1[10,9]: - u[10,9] + r[10,9] <= 0
 mccormick2[0,2]: - y[0,2] + r[0,2] <= 0
 mccormick2[0,3]: - y[0,3] + r[0,3] <= 0
 mccormick2[0,5]: - y[0,5] + r[0,5] <= 0
 mccormick2[0,6]: - y[0,6] + r[0,6] <= 0
 mccormick2[0,7]: - y[0,7] + r[0,7] <= 0
 mccormick2[0,8]: - y[0,8] + r[0,8] <= 0
 mccormick2[0,9]: - y[0,9] + r[0,9] <= 0
 mccormick2[1,2]: - y[1,2] + r[1,2] <= 0
 mccormick2[1,3]: - y[1,3] + r[1,3] <= 0
 mccormick2[1,4]: - y[1,4] + r[1,4] <= 0
 mccormick2[1,6]: - y[1,6] + r[1,6] <= 0
 mccormick2[1,8]: - y[1,8] + r[1,8] <= 0
 mccormick2[1,9]: - y[1,9] + r[1,9] <= 0
 mccormick2[1,10]: - y[1,10] + r[1,10] <= 0
 mccormick2[2,0]: - y[2,0] + r[2,0] <= 0
 mccormick2[2,1]: - y[2,1] + r[2,1] <= 0
 mccormick2[2,3]: - y[2,3] + r[2,3] <= 0
 mccormick2[2,5]: - y[2,5] + r[2,5] <= 0
 mccormick2[2,6]: - y[2,6] + r[2,6] <= 0
 mccormick2[2,8]: - y[2,8] + r[2,8] <= 0
 mccormick2[2,9]: - y[2,9] + r[2,9] <= 0
 mccormick2[2,10]: - y[2,10] + r[2,10] <= 0
 mccormick2[3,0]: - y[3,0] + r[3,0] <= 0
 mccormick2[3,1]: - y[3,1] + r[3,1] <= 0
 mccormick2[3,2]: - y[3,2] + r[3,2] <= 0
 mccormick2[3,4]: - y[3,4] + r[3,4] <= 0
 mccormick2[3,5]: - y[3,5] + r[3,5] <= 0
 mccormick2[3,6]: - y[3,6] + r[3,6] <= 0
 mccormick2[3,8]: - y[3,8] + r[3,8] <= 0
 mccormick2[3,9]: - y[3,9] + r[3,9] <= 0
 mccormick2[3,10]: - y[3,10] + r[3,10] <= 0
 mccormick2[4,1]: - y[4,1] + r[4,1] <= 0
 mccormick2[4,3]: - y[4,3] + r[4,3] <= 0
 mccormick2[4,6]: - y[4,6] + r[4,6] <= 0
 mccormick2[4,8]: - y[4,8] + r[4,8] <= 0
 mccormick2[4,9]: - y[4,9] + r[4,9] <= 0
 mccormick2[4,10]: - y[4,10] + r[4,10] <= 0
 mccormick2[5,0]: - y[5,0] + r[5,0] <= 0
 mccormick2[5,2]: - y[5,2] + r[5,2] <= 0
 mccormick2[5,3]: - y[5,3] + r[5,3] <= 0
 mccormick2[5,6]: - y[5,6] + r[5,6] <= 0
 mccormick2[5,8]: - y[5,8] + r[5,8] <= 0
 mccormick2[5,9]: - y[5,9] + r[5,9] <= 0
 mccormick2[5,10]: - y[5,10] + r[5,10] <= 0
 mccormick2[6,0]: - y[6,0] + r[6,0] <= 0
 mccormick2[6,1]: - y[6,1] + r[6,1] <= 0
 mccormick2[6,2]: - y[6,2] + r[6,2] <= 0
 mccormick2[6,3]: - y[6,3] + r[6,3] <= 0
 mccormick2[6,4]: - y[6,4] + r[6,4] <= 0
 mccormick2[6,5]: - y[6,5] + r[6,5] <= 0
 mccormick2[6,7]: - y[6,7] + r[6,7] <= 0
 mccormick2[6,8]: - y[6,8] + r[6,8] <= 0
 mccormick2[6,9]: - y[6,9] + r[6,9] <= 0
 mccormick2[6,10]: - y[6,10] + r[6,10] <= 0
 mccormick2[7,0]: - y[7,0] + r[7,0] <= 0
 mccormick2[7,6]: - y[7,6] + r[7,6] <= 0
 mccormick2[7,8]: - y[7,8] + r[7,8] <= 0
 mccormick2[7,9]: - y[7,9] + r[7,9] <= 0
 mccormick2[7,10]: - y[7,10] + r[7,10] <= 0
 mccormick2[8,0]: - y[8,0] + r[8,0] <= 0
 mccormick2[8,1]: - y[8,1] + r[8,1] <= 0
 mccormick2[8,2]: - y[8,2] + r[8,2] <= 0
 mccormick2[8,3]: - y[8,3] + r[8,3] <= 0
 mccormick2[8,4]: - y[8,4] + r[8,4] <= 0
 mccormick2[8,5]: - y[8,5] + r[8,5] <= 0
 mccormick2[8,6]: - y[8,6] + r[8,6] <= 0
 mccormick2[8,7]: - y[8,7] + r[8,7] <= 0
 mccormick2[8,9]: - y[8,9] + r[8,9] <= 0
 mccormick2[8,10]: - y[8,10] + r[8,10] <= 0
 mccormick2[9,0]: - y[9,0] + r[9,0] <= 0
 mccormick2[9,1]: - y[9,1] + r[9,1] <= 0
 mccormick2[9,2]: - y[9,2] + r[9,2] <= 0
 mccormick2[9,3]: - y[9,3] + r[9,3] <= 0
 mccormick2[9,4]: - y[9,4] + r[9,4] <= 0
 mccormick2[9,5]: - y[9,5] + r[9,5] <= 0
 mccormick2[9,6]: - y[9,6] + r[9,6] <= 0
 mccormick2[9,7]: - y[9,7] + r[9,7] <= 0
 mccormick2[9,8]: - y[9,8] + r[9,8] <= 0
 mccormick2[9,10]: - y[9,10] + r[9,10] <= 0
 mccormick2[10,1]: - y[10,1] + r[10,1] <= 0
 mccormick2[10,2]: - y[10,2] + r[10,2] <= 0
 mccormick2[10,3]: - y[10,3] + r[10,3] <= 0
 mccormick2[10,4]: - y[10,4] + r[10,4] <= 0
 mccormick2[10,5]: - y[10,5] + r[10,5] <= 0
 mccormick2[10,6]: - y[10,6] + r[10,6] <= 0
 mccormick2[10,7]: - y[10,7] + r[10,7] <= 0
 mccormick2[10,8]: - y[10,8] + r[10,8] <= 0
 mccormick2[10,9]: - y[10,9] + r[10,9] <= 0
 mccormick3[0,2]: - y[0,2] - u[0,2] + r[0,2] >= -1
 mccormick3[0,3]: - y[0,3] - u[0,3] + r[0,3] >= -1
 mccormick3[0,5]: - y[0,5] - u[0,5] + r[0,5] >= -1
 mccormick3[0,6]: - y[0,6] - u[0,6] + r[0,6] >= -1
 mccormick3[0,7]: - y[0,7] - u[0,7] + r[0,7] >= -1
 mccormick3[0,8]: - y[0,8] - u[0,8] + r[0,8] >= -1
 mccormick3[0,9]: - y[0,9] - u[0,9] + r[0,9] >= -1
 mccormick3[1,2]: - y[1,2] - u[1,2] + r[1,2] >= -1
 mccormick3[1,3]: - y[1,3] - u[1,3] + r[1,3] >= -1
 mccormick3[1,4]: - y[1,4] - u[1,4] + r[1,4] >= -1
 mccormick3[1,6]: - y[1,6] - u[1,6] + r[1,6] >= -1
 mccormick3[1,8]: - y[1,8] - u[1,8] + r[1,8] >= -1
 mccormick3[1,9]: - y[1,9] - u[1,9] + r[1,9] >= -1
 mccormick3[1,10]: - y[1,10] - u[1,10] + r[1,10] >= -1
 mccormick3[2,0]: - y[2,0] - u[2,0] + r[2,0] >= -1
 mccormick3[2,1]: - y[2,1] - u[2,1] + r[2,1] >= -1
 mccormick3[2,3]: - y[2,3] - u[2,3] + r[2,3] >= -1
 mccormick3[2,5]: - y[2,5] - u[2,5] + r[2,5] >= -1
 mccormick3[2,6]: - y[2,6] - u[2,6] + r[2,6] >= -1
 mccormick3[2,8]: - y[2,8] - u[2,8] + r[2,8] >= -1
 mccormick3[2,9]: - y[2,9] - u[2,9] + r[2,9] >= -1
 mccormick3[2,10]: - y[2,10] - u[2,10] + r[2,10] >= -1
 mccormick3[3,0]: - y[3,0] - u[3,0] + r[3,0] >= -1
 mccormick3[3,1]: - y[3,1] - u[3,1] + r[3,1] >= -1
 mccormick3[3,2]: - y[3,2] - u[3,2] + r[3,2] >= -1
 mccormick3[3,4]: - y[3,4] - u[3,4] + r[3,4] >= -1
 mccormick3[3,5]: - y[3,5] - u[3,5] + r[3,5] >= -1
 mccormick3[3,6]: - y[3,6] - u[3,6] + r[3,6] >= -1
 mccormick3[3,8]: - y[3,8] - u[3,8] + r[3,8] >= -1
 mccormick3[3,9]: - y[3,9] - u[3,9] + r[3,9] >= -1
 mccormick3[3,10]: - y[3,10] - u[3,10] + r[3,10] >= -1
 mccormick3[4,1]: - y[4,1] - u[4,1] + r[4,1] >= -1
 mccormick3[4,3]: - y[4,3] - u[4,3] + r[4,3] >= -1
 mccormick3[4,6]: - y[4,6] - u[4,6] + r[4,6] >= -1
 mccormick3[4,8]: - y[4,8] - u[4,8] + r[4,8] >= -1
 mccormick3[4,9]: - y[4,9] - u[4,9] + r[4,9] >= -1
 mccormick3[4,10]: - y[4,10] - u[4,10] + r[4,10] >= -1
 mccormick3[5,0]: - y[5,0] - u[5,0] + r[5,0] >= -1
 mccormick3[5,2]: - y[5,2] - u[5,2] + r[5,2] >= -1
 mccormick3[5,3]: - y[5,3] - u[5,3] + r[5,3] >= -1
 mccormick3[5,6]: - y[5,6] - u[5,6] + r[5,6] >= -1
 mccormick3[5,8]: - y[5,8] - u[5,8] + r[5,8] >= -1
 mccormick3[5,9]: - y[5,9] - u[5,9] + r[5,9] >= -1
 mccormick3[5,10]: - y[5,10] - u[5,10] + r[5,10] >= -1
 mccormick3[6,0]: - y[6,0] - u[6,0] + r[6,0] >= -1
 mccormick3[6,1]: - y[6,1] - u[6,1] + r[6,1] >= -1
 mccormick3[6,2]: - y[6,2] - u[6,2] + r[6,2] >= -1
 mccormick3[6,3]: - y[6,3] - u[6,3] + r[6,3] >= -1
 mccormick3[6,4]: - y[6,4] - u[6,4] + r[6,4] >= -1
 mccormick3[6,5]: - y[6,5] - u[6,5] + r[6,5] >= -1
 mccormick3[6,7]: - y[6,7] - u[6,7] + r[6,7] >= -1
 mccormick3[6,8]: - y[6,8] - u[6,8] + r[6,8] >= -1
 mccormick3[6,9]: - y[6,9] - u[6,9] + r[6,9] >= -1
 mccormick3[6,10]: - y[6,10] - u[6,10] + r[6,10] >= -1
 mccormick3[7,0]: - y[7,0] - u[7,0] + r[7,0] >= -1
 mccormick3[7,6]: - y[7,6] - u[7,6] + r[7,6] >= -1
 mccormick3[7,8]: - y[7,8] - u[7,8] + r[7,8] >= -1
 mccormick3[7,9]: - y[7,9] - u[7,9] + r[7,9] >= -1
 mccormick3[7,10]: - y[7,10] - u[7,10] + r[7,10] >= -1
 mccormick3[8,0]: - y[8,0] - u[8,0] + r[8,0] >= -1
 mccormick3[8,1]: - y[8,1] - u[8,1] + r[8,1] >= -1
 mccormick3[8,2]: - y[8,2] - u[8,2] + r[8,2] >= -1
 mccormick3[8,3]: - y[8,3] - u[8,3] + r[8,3] >= -1
 mccormick3[8,4]: - y[8,4] - u[8,4] + r[8,4] >= -1
 mccormick3[8,5]: - y[8,5] - u[8,5] + r[8,5] >= -1
 mccormick3[8,6]: - y[8,6] - u[8,6] + r[8,6] >= -1
 mccormick3[8,7]: - y[8,7] - u[8,7] + r[8,7] >= -1
 mccormick3[8,9]: - y[8,9] - u[8,9] + r[8,9] >= -1
 mccormick3[8,10]: - y[8,10] - u[8,10] + r[8,10] >= -1
 mccormick3[9,0]: - y[9,0] - u[9,0] + r[9,0] >= -1
 mccormick3[9,1]: - y[9,1] - u[9,1] + r[9,1] >= -1
 mccormick3[9,2]: - y[9,2] - u[9,2] + r[9,2] >= -1
 mccormick3[9,3]: - y[9,3] - u[9,3] + r[9,3] >= -1
 mccormick3[9,4]: - y[9,4] - u[9,4] + r[9,4] >= -1
 mccormick3[9,5]: - y[9,5] - u[9,5] + r[9,5] >= -1
 mccormick3[9,6]: - y[9,6] - u[9,6] + r[9,6] >= -1
 mccormick3[9,7]: - y[9,7] - u[9,7] + r[9,7] >= -1
 mccormick3[9,8]: - y[9,8] - u[9,8] + r[9,8] >= -1
 mccormick3[9,10]: - y[9,10] - u[9,10] + r[9,10] >= -1
 mccormick3[10,1]: - y[10,1] - u[10,1] + r[10,1] >= -1
 mccormick3[10,2]: - y[10,2] - u[10,2] + r[10,2] >= -1
 mccormick3[10,3]: - y[10,3] - u[10,3] + r[10,3] >= -1
 mccormick3[10,4]: - y[10,4] - u[10,4] + r[10,4] >= -1
 mccormick3[10,5]: - y[10,5] - u[10,5] + r[10,5] >= -1
 mccormick3[10,6]: - y[10,6] - u[10,6] + r[10,6] >= -1
 mccormick3[10,7]: - y[10,7] - u[10,7] + r[10,7] >= -1
 mccormick3[10,8]: - y[10,8] - u[10,8] + r[10,8] >= -1
 mccormick3[10,9]: - y[10,9] - u[10,9] + r[10,9] >= -1
Bounds
Binaries
 y[0,2] y[0,3] y[0,5] y[0,6] y[0,7] y[0,8] y[0,9] y[1,2] y[1,3] y[1,4]
 y[1,6] y[1,8] y[1,9] y[1,10] y[2,0] y[2,1] y[2,3] y[2,5] y[2,6] y[2,8]
 y[2,9] y[2,10] y[3,0] y[3,1] y[3,2] y[3,4] y[3,5] y[3,6] y[3,8] y[3,9]
 y[3,10] y[4,1] y[4,3] y[4,6] y[4,8] y[4,9] y[4,10] y[5,0] y[5,2] y[5,3]
 y[5,6] y[5,8] y[5,9] y[5,10] y[6,0] y[6,1] y[6,2] y[6,3] y[6,4] y[6,5]
 y[6,7] y[6,8] y[6,9] y[6,10] y[7,0] y[7,6] y[7,8] y[7,9] y[7,10] y[8,0]
 y[8,1] y[8,2] y[8,3] y[8,4] y[8,5] y[8,6] y[8,7] y[8,9] y[8,10] y[9,0]
 y[9,1] y[9,2] y[9,3] y[9,4] y[9,5] y[9,6] y[9,7] y[9,8] y[9,10] y[10,1]
 y[10,2] y[10,3] y[10,4] y[10,5] y[10,6] y[10,7] y[10,8] y[10,9] x[0,2]
 x[0,3] x[0,5] x[0,6] x[0,7] x[0,8] x[0,9] x[1,2] x[1,3] x[1,4] x[1,6]
 x[1,8] x[1,9] x[1,10] x[2,0] x[2,1] x[2,3] x[2,5] x[2,6] x[2,8] x[2,9]
 x[2,10] x[3,0] x[3,1] x[3,2] x[3,4] x[3,5] x[3,6] x[3,8] x[3,9] x[3,10]
 x[4,1] x[4,3] x[4,6] x[4,8] x[4,9] x[4,10] x[5,0] x[5,2] x[5,3] x[5,6]
 x[5,8] x[5,9] x[5,10] x[6,0] x[6,1] x[6,2] x[6,3] x[6,4] x[6,5] x[6,7]
 x[6,8] x[6,9] x[6,10] x[7,0] x[7,6] x[7,8] x[7,9] x[7,10] x[8,0] x[8,1]
 x[8,2] x[8,3] x[8,4] x[8,5] x[8,6] x[8,7] x[8,9] x[8,10] x[9,0] x[9,1]
 x[9,2] x[9,3] x[9,4] x[9,5] x[9,6] x[9,7] x[9,8] x[9,10] x[10,1] x[10,2]
 x[10,3] x[10,4] x[10,5] x[10,6] x[10,7] x[10,8] x[10,9] u[0,2] u[0,3]
 u[0,5] u[0,6] u[0,7] u[0,8] u[0,9] u[1,2] u[1,3] u[1,4] u[1,6] u[1,8]
 u[1,9] u[1,10] u[2,0] u[2,1] u[2,3] u[2,5] u[2,6] u[2,8] u[2,9] u[2,10]
 u[3,0] u[3,1] u[3,2] u[3,4] u[3,5] u[3,6] u[3,8] u[3,9] u[3,10] u[4,1]
 u[4,3] u[4,6] u[4,8] u[4,9] u[4,10] u[5,0] u[5,2] u[5,3] u[5,6] u[5,8]
 u[5,9] u[5,10] u[6,0] u[6,1] u[6,2] u[6,3] u[6,4] u[6,5] u[6,7] u[6,8]
 u[6,9] u[6,10] u[7,0] u[7,6] u[7,8] u[7,9] u[7,10] u[8,0] u[8,1] u[8,2]
 u[8,3] u[8,4] u[8,5] u[8,6] u[8,7] u[8,9] u[8,10] u[9,0] u[9,1] u[9,2]
 u[9,3] u[9,4] u[9,5] u[9,6] u[9,7] u[9,8] u[9,10] u[10,1] u[10,2] u[10,3]
 u[10,4] u[10,5] u[10,6] u[10,7] u[10,8] u[10,9] r[0,2] r[0,3] r[0,5]
 r[0,6] r[0,7] r[0,8] r[0,9] r[1,2] r[1,3] r[1,4] r[1,6] r[1,8] r[1,9]
 r[1,10] r[2,0] r[2,1] r[2,3] r[2,5] r[2,6] r[2,8] r[2,9] r[2,10] r[3,0]
 r[3,1] r[3,2] r[3,4] r[3,5] r[3,6] r[3,8] r[3,9] r[3,10] r[4,1] r[4,3]
 r[4,6] r[4,8] r[4,9] r[4,10] r[5,0] r[5,2] r[5,3] r[5,6] r[5,8] r[5,9]
 r[5,10] r[6,0] r[6,1] r[6,2] r[6,3] r[6,4] r[6,5] r[6,7] r[6,8] r[6,9]
 r[6,10] r[7,0] r[7,6] r[7,8] r[7,9] r[7,10] r[8,0] r[8,1] r[8,2] r[8,3]
 r[8,4] r[8,5] r[8,6] r[8,7] r[8,9] r[8,10] r[9,0] r[9,1] r[9,2] r[9,3]
 r[9,4] r[9,5] r[9,6] r[9,7] r[9,8] r[9,10] r[10,1] r[10,2] r[10,3] r[10,4]
 r[10,5] r[10,6] r[10,7] r[10,8] r[10,9]
End
